Molecule_POSCAR_04                      
   1.00000000000000     
    20.0000000000000000    0.0000000000000000    0.0000000000000000
     0.0000000000000000   20.0000000000000000    0.0000000000000000
     0.0000000000000000    0.0000000000000000   20.0000000000000000
   C    H    N    O 
     8    15     1     1
Direct
  0.3912310999999988  0.3886352999999971  0.4926939500000032
  0.4303928499999969  0.4405037000000007  0.5300999500000003
  0.4901341500000029  0.4652948499999994  0.4895567000000014
  0.4665965499999984  0.4959136499999985  0.4249368500000017
  0.5234562999999994  0.5188829499999983  0.5305875499999999
  0.5838910499999983  0.5482952500000025  0.4965204000000014
  0.6116924499999996  0.6014632999999989  0.5442727499999975
  0.5602109000000013  0.6532109500000018  0.5563378000000014
  0.4213521499999970  0.3623675999999989  0.4542704999999998
  0.3662994000000026  0.3520534999999967  0.5265732000000014
  0.3506864499999978  0.4147152500000004  0.4651877499999983
  0.3967221999999992  0.4828534500000004  0.5423915000000008
  0.4475768499999973  0.4185378000000028  0.5774817499999969
  0.4635999999999996  0.5507928500000006  0.4299170999999973
  0.5035243000000023  0.4852812999999969  0.3851195499999989
  0.4158840500000025  0.4784040500000017  0.4102565999999968
  0.5212978500000034  0.3957591500000035  0.4294178000000031
  0.4872278499999965  0.5583041000000009  0.5407634500000000
  0.5404245499999973  0.4962330500000007  0.5782477500000027
  0.6223655499999978  0.5102401500000013  0.4872308500000031
  0.5725182500000017  0.5736616000000012  0.4493366499999993
  0.6225637000000006  0.5789218999999974  0.5939955999999995
  0.6583608500000011  0.6231184999999968  0.5250696000000019
  0.5204957999999991  0.6942206499999983  0.5651114500000034
  0.5314948999999984  0.4123351000000000  0.4746229000000000
 
  0.00000000E+00  0.00000000E+00  0.00000000E+00
  0.00000000E+00  0.00000000E+00  0.00000000E+00
  0.00000000E+00  0.00000000E+00  0.00000000E+00
  0.00000000E+00  0.00000000E+00  0.00000000E+00
  0.00000000E+00  0.00000000E+00  0.00000000E+00
  0.00000000E+00  0.00000000E+00  0.00000000E+00
  0.00000000E+00  0.00000000E+00  0.00000000E+00
  0.00000000E+00  0.00000000E+00  0.00000000E+00
  0.00000000E+00  0.00000000E+00  0.00000000E+00
  0.00000000E+00  0.00000000E+00  0.00000000E+00
  0.00000000E+00  0.00000000E+00  0.00000000E+00
  0.00000000E+00  0.00000000E+00  0.00000000E+00
  0.00000000E+00  0.00000000E+00  0.00000000E+00
  0.00000000E+00  0.00000000E+00  0.00000000E+00
  0.00000000E+00  0.00000000E+00  0.00000000E+00
  0.00000000E+00  0.00000000E+00  0.00000000E+00
  0.00000000E+00  0.00000000E+00  0.00000000E+00
  0.00000000E+00  0.00000000E+00  0.00000000E+00
  0.00000000E+00  0.00000000E+00  0.00000000E+00
  0.00000000E+00  0.00000000E+00  0.00000000E+00
  0.00000000E+00  0.00000000E+00  0.00000000E+00
  0.00000000E+00  0.00000000E+00  0.00000000E+00
  0.00000000E+00  0.00000000E+00  0.00000000E+00
  0.00000000E+00  0.00000000E+00  0.00000000E+00
  0.00000000E+00  0.00000000E+00  0.00000000E+00
