Molecule_POSCAR_04
1.0
20.000000 0.000000 0.000000
0.000000 20.000000 0.000000
0.000000 0.000000 20.000000
C H N O
8 15 1 1
Cartesian
7.824622 7.772706 9.853879
8.607857 8.810074 10.601999
9.802683 9.305897 9.791134
9.331931 9.918273 8.498737
10.469126 10.377659 10.611751
11.677821 10.965905 9.930408
12.233849 12.029266 10.885455
11.204218 13.064219 11.126756
8.427043 7.247352 9.085410
7.325988 7.041070 10.531464
7.013729 8.294305 9.303755
7.934444 9.657069 10.847830
8.951537 8.370756 11.549635
9.272000 11.015857 8.598342
10.070486 9.705626 7.702391
8.317681 9.568081 8.205132
10.425957 7.915183 8.588356
9.744557 11.166082 10.815269
10.808491 9.924661 11.564955
12.447311 10.204803 9.744617
11.450365 11.473232 8.986733
12.451274 11.578438 11.879912
13.167217 12.462370 10.501392
10.409916 13.884413 11.302229
10.629898 8.246702 9.492458
