Molecule_POSCAR_05                      
   1.00000000000000     
    20.0000000000000000    0.0000000000000000    0.0000000000000000
     0.0000000000000000   20.0000000000000000    0.0000000000000000
     0.0000000000000000    0.0000000000000000   20.0000000000000000
   C    H    N    O 
     5     9     3     1
Direct
  0.4598988500000019  0.4397472500000035  0.4389468500000007
  0.4853804999999980  0.4747356499999995  0.5015141000000014
  0.5872783499999983  0.5257022999999990  0.5422062499999996
  0.6549672000000015  0.5424555999999967  0.5168204000000003
  0.4418722500000030  0.5350841500000030  0.5101626000000010
  0.4120840499999971  0.4152350499999997  0.4522319499999981
  0.4972145999999995  0.4053630499999983  0.4181259499999967
  0.4504573999999977  0.4781658500000034  0.3991885499999981
  0.4781690499999982  0.4410696500000029  0.5436978500000009
  0.5798248999999984  0.4651315999999994  0.4578235999999976
  0.5918644999999998  0.4893993499999993  0.5846737500000003
  0.5658042000000023  0.5722140999999965  0.5611127000000025
  0.3493250000000003  0.4811622000000000  0.5123408500000011
  0.3470074999999966  0.5645464500000017  0.5456331500000005
  0.5522260500000016  0.4953159499999984  0.4884502999999967
  0.7079594499999970  0.5561464999999970  0.4977879999999999
  0.3728968500000036  0.5257649999999998  0.5238834999999966
  0.4657693999999992  0.5927604000000031  0.5053995499999999
 
  0.00000000E+00  0.00000000E+00  0.00000000E+00
  0.00000000E+00  0.00000000E+00  0.00000000E+00
  0.00000000E+00  0.00000000E+00  0.00000000E+00
  0.00000000E+00  0.00000000E+00  0.00000000E+00
  0.00000000E+00  0.00000000E+00  0.00000000E+00
  0.00000000E+00  0.00000000E+00  0.00000000E+00
  0.00000000E+00  0.00000000E+00  0.00000000E+00
  0.00000000E+00  0.00000000E+00  0.00000000E+00
  0.00000000E+00  0.00000000E+00  0.00000000E+00
  0.00000000E+00  0.00000000E+00  0.00000000E+00
  0.00000000E+00  0.00000000E+00  0.00000000E+00
  0.00000000E+00  0.00000000E+00  0.00000000E+00
  0.00000000E+00  0.00000000E+00  0.00000000E+00
  0.00000000E+00  0.00000000E+00  0.00000000E+00
  0.00000000E+00  0.00000000E+00  0.00000000E+00
  0.00000000E+00  0.00000000E+00  0.00000000E+00
  0.00000000E+00  0.00000000E+00  0.00000000E+00
  0.00000000E+00  0.00000000E+00  0.00000000E+00
