 vasp.6.4.2 20Jul23 (build Mar 28 2025 16:44:38) complex                        
  
 executed on             LinuxIFC date 2026.02.17  14:42:24
 running   32 mpi-ranks, on    1 nodes
 distrk:  each k-point on   32 cores,    1 groups
 distr:  one band on NCORE=   4 cores,    8 groups


--------------------------------------------------------------------------------------------------------


 INCAR:
   SYSTEM = QM9_Benchmark_B3LYP_Gap_Dipole
   PREC = Accurate
   ENCUT = 500
   EDIFF = 1E-6
   ISMEAR = 0
   SIGMA = 0.05
   NELM = 100
   IBRION = -1
   NSW = 0
   LHFCALC = .TRUE.
   GGA = B3
   AEXX = 0.20
   AGGAX = 0.72
   AGGAC = 0.81
   ALDAC = 0.19
   ALGO = Damped
   TIME = 0.4
   LDIPOL = .TRUE.
   IDIPOL = 4
   DIPOL = 0.5 0.5 0.5
   LORBIT = 11
   NEDOS = 2000
   ISYM = 0
   LREAL = .FALSE.
   NCORE = 4

 POTCAR:    PAW_PBE C 08Apr2002                   
 POTCAR:    PAW_PBE H 15Jun2001                   
 POTCAR:    PAW_PBE N 08Apr2002                   
 POTCAR:    PAW_PBE O 08Apr2002                   
 POTCAR:    PAW_PBE C 08Apr2002                   
   VRHFIN =C: s2p2                                                                                  
   LEXCH  = PE                                                                                      
   EATOM  =   147.1560 eV,   10.8157 Ry                                                             
                                                                                                    
   TITEL  = PAW_PBE C 08Apr2002                                                                     
   LULTRA =        F    use ultrasoft PP ?                                                          
   IUNSCR =        1    unscreen: 0-lin 1-nonlin 2-no                                               
   RPACOR =    1.200    partial core radius                                                         
   POMASS =   12.011; ZVAL   =    4.000    mass and valenz                                          
   RCORE  =    1.500    outmost cutoff radius                                                       
   RWIGS  =    1.630; RWIGS  =    0.863    wigner-seitz radius (au A)                               
   ENMAX  =  400.000; ENMIN  =  300.000 eV                                                          
   ICORE  =        2    local potential                                                             
   LCOR   =        T    correct aug charges                                                         
   LPAW   =        T    paw PP                                                                      
   EAUG   =  644.873                                                                                
   DEXC   =    0.000                                                                                
   RMAX   =    1.529    core radius for proj-oper                                                   
   RAUG   =    1.300    factor for augmentation sphere                                              
   RDEP   =    1.501    radius for radial grids                                                     
   RDEPT  =    1.300    core radius for aug-charge                                                  
                                                                                                    
   Atomic configuration                                                                             
    4 entries                                                                                       
     n  l   j            E        occ.                                                              
     1  0  0.50      -273.3789   2.0000                                                             
     2  0  0.50       -13.7508   2.0000                                                             
     2  1  0.50        -5.2854   2.0000                                                             
     3  2  1.50        -5.4423   0.0000                                                             
   Description                                                                                      
     l       E           TYP  RCUT    TYP  RCUT                                                     
     0    -13.7508458     23  1.200                                                                 
     0     -8.2022199     23  1.200                                                                 
     1     -5.2854383     23  1.500                                                                 
     1     34.0145650     23  1.500                                                                 
     2     -5.4423304      7  1.500                                                                 
  local pseudopotential read in
  partial core-charges read in
  partial kinetic energy density read in
  atomic valenz-charges read in
  non local Contribution for L=           0  read in
    real space projection operators read in
  non local Contribution for L=           0  read in
    real space projection operators read in
  non local Contribution for L=           1  read in
    real space projection operators read in
  non local Contribution for L=           1  read in
    real space projection operators read in
    PAW grid and wavefunctions read in
 
   number of l-projection  operators is LMAX  =           4
   number of lm-projection operators is LMMAX =           8
 
 POTCAR:    PAW_PBE H 15Jun2001                   
   VRHFIN =H: ultrasoft test                                                                        
   LEXCH  = PE                                                                                      
   EATOM  =    12.4884 eV,    0.9179 Ry                                                             
                                                                                                    
   TITEL  = PAW_PBE H 15Jun2001                                                                     
   LULTRA =        F    use ultrasoft PP ?                                                          
   IUNSCR =        0    unscreen: 0-lin 1-nonlin 2-no                                               
   RPACOR =    0.000    partial core radius                                                         
   POMASS =    1.000; ZVAL   =    1.000    mass and valenz                                          
   RCORE  =    1.100    outmost cutoff radius                                                       
   RWIGS  =    0.700; RWIGS  =    0.370    wigner-seitz radius (au A)                               
   ENMAX  =  250.000; ENMIN  =  200.000 eV                                                          
   RCLOC  =    0.701    cutoff for local pot                                                        
   LCOR   =        T    correct aug charges                                                         
   LPAW   =        T    paw PP                                                                      
   EAUG   =  400.000                                                                                
   RMAX   =    1.123    core radius for proj-oper                                                   
   RAUG   =    1.200    factor for augmentation sphere                                              
   RDEP   =    1.112    radius for radial grids                                                     
   RDEPT  =    0.926    core radius for aug-charge                                                  
                                                                                                    
   Atomic configuration                                                                             
    2 entries                                                                                       
     n  l   j            E        occ.                                                              
     1  0  0.50        -6.4927   1.0000                                                             
     2  1  0.50        -3.4015   0.0000                                                             
   Description                                                                                      
     l       E           TYP  RCUT    TYP  RCUT                                                     
     0     -6.4927494     23  1.100                                                                 
     0      6.8029130     23  1.100                                                                 
     1     -4.0817478     23  1.100                                                                 
  local pseudopotential read in
  atomic valenz-charges read in
  non local Contribution for L=           0  read in
    real space projection operators read in
  non local Contribution for L=           0  read in
    real space projection operators read in
  non local Contribution for L=           1  read in
    real space projection operators read in
    PAW grid and wavefunctions read in
 
   number of l-projection  operators is LMAX  =           3
   number of lm-projection operators is LMMAX =           5
 
 POTCAR:    PAW_PBE N 08Apr2002                   
   VRHFIN =N: s2p3                                                                                  
   LEXCH  = PE                                                                                      
   EATOM  =   264.5486 eV,   19.4438 Ry                                                             
                                                                                                    
   TITEL  = PAW_PBE N 08Apr2002                                                                     
   LULTRA =        F    use ultrasoft PP ?                                                          
   IUNSCR =        1    unscreen: 0-lin 1-nonlin 2-no                                               
   RPACOR =    1.200    partial core radius                                                         
   POMASS =   14.001; ZVAL   =    5.000    mass and valenz                                          
   RCORE  =    1.500    outmost cutoff radius                                                       
   RWIGS  =    1.400; RWIGS  =    0.741    wigner-seitz radius (au A)                               
   ENMAX  =  400.000; ENMIN  =  300.000 eV                                                          
   ICORE  =        2    local potential                                                             
   LCOR   =        T    correct aug charges                                                         
   LPAW   =        T    paw PP                                                                      
   EAUG   =  627.112                                                                                
   DEXC   =    0.000                                                                                
   RMAX   =    1.529    core radius for proj-oper                                                   
   RAUG   =    1.300    factor for augmentation sphere                                              
   RDEP   =    1.514    radius for radial grids                                                     
   RDEPT  =    1.338    core radius for aug-charge                                                  
                                                                                                    
   Atomic configuration                                                                             
    4 entries                                                                                       
     n  l   j            E        occ.                                                              
     1  0  0.50      -384.7179   2.0000                                                             
     2  0  0.50       -18.5828   2.0000                                                             
     2  1  0.50        -7.0898   3.0000                                                             
     3  2  1.50        -6.8029   0.0000                                                             
   Description                                                                                      
     l       E           TYP  RCUT    TYP  RCUT                                                     
     0    -18.5828119     23  1.200                                                                 
     0    -13.5018863     23  1.200                                                                 
     1     -7.0897853     23  1.500                                                                 
     1      9.5240782     23  1.500                                                                 
     2     -6.8029130      7  1.500                                                                 
  local pseudopotential read in
  partial core-charges read in
  partial kinetic energy density read in
  atomic valenz-charges read in
  non local Contribution for L=           0  read in
    real space projection operators read in
  non local Contribution for L=           0  read in
    real space projection operators read in
  non local Contribution for L=           1  read in
    real space projection operators read in
  non local Contribution for L=           1  read in
    real space projection operators read in
    PAW grid and wavefunctions read in
 
   number of l-projection  operators is LMAX  =           4
   number of lm-projection operators is LMMAX =           8
 
 POTCAR:    PAW_PBE O 08Apr2002                   
   VRHFIN =O: s2p4                                                                                  
   LEXCH  = PE                                                                                      
   EATOM  =   432.3788 eV,   31.7789 Ry                                                             
                                                                                                    
   TITEL  = PAW_PBE O 08Apr2002                                                                     
   LULTRA =        F    use ultrasoft PP ?                                                          
   IUNSCR =        1    unscreen: 0-lin 1-nonlin 2-no                                               
   RPACOR =    1.200    partial core radius                                                         
   POMASS =   16.000; ZVAL   =    6.000    mass and valenz                                          
   RCORE  =    1.520    outmost cutoff radius                                                       
   RWIGS  =    1.550; RWIGS  =    0.820    wigner-seitz radius (au A)                               
   ENMAX  =  400.000; ENMIN  =  300.000 eV                                                          
   ICORE  =        2    local potential                                                             
   LCOR   =        T    correct aug charges                                                         
   LPAW   =        T    paw PP                                                                      
   EAUG   =  605.392                                                                                
   DEXC   =    0.000                                                                                
   RMAX   =    1.553    core radius for proj-oper                                                   
   RAUG   =    1.300    factor for augmentation sphere                                              
   RDEP   =    1.550    radius for radial grids                                                     
   RDEPT  =    1.329    core radius for aug-charge                                                  
                                                                                                    
   Atomic configuration                                                                             
    4 entries                                                                                       
     n  l   j            E        occ.                                                              
     1  0  0.50      -514.6923   2.0000                                                             
     2  0  0.50       -23.9615   2.0000                                                             
     2  1  0.50        -9.0305   4.0000                                                             
     3  2  1.50        -9.5241   0.0000                                                             
   Description                                                                                      
     l       E           TYP  RCUT    TYP  RCUT                                                     
     0    -23.9615318     23  1.200                                                                 
     0     -9.5240782     23  1.200                                                                 
     1     -9.0304911     23  1.520                                                                 
     1      8.1634956     23  1.520                                                                 
     2     -9.5240782      7  1.500                                                                 
  local pseudopotential read in
  partial core-charges read in
  partial kinetic energy density read in
  kinetic energy density of atom read in
  atomic valenz-charges read in
  non local Contribution for L=           0  read in
    real space projection operators read in
  non local Contribution for L=           0  read in
    real space projection operators read in
  non local Contribution for L=           1  read in
    real space projection operators read in
  non local Contribution for L=           1  read in
    real space projection operators read in
    PAW grid and wavefunctions read in
 
   number of l-projection  operators is LMAX  =           4
   number of lm-projection operators is LMMAX =           8
 
 -----------------------------------------------------------------------------
|                                                                             |
|               ----> ADVICE to this user running VASP <----                  |
|                                                                             |
|     You have a (more or less) 'large supercell' and for larger cells it     |
|     might be more efficient to use real-space projection operators.         |
|     Therefore, try LREAL= Auto in the INCAR file.                           |
|     Mind: For very accurate calculation, you might also keep the            |
|     reciprocal projection scheme (i.e. LREAL=.FALSE.).                      |
|                                                                             |
 -----------------------------------------------------------------------------

 -----------------------------------------------------------------------------
|                                                                             |
|               ----> ADVICE to this user running VASP <----                  |
|                                                                             |
|     You enforced a specific xc type in the INCAR file but a different       |
|     type was found in the POTCAR file.                                      |
|     I HOPE YOU KNOW WHAT YOU ARE DOING!                                     |
|                                                                             |
 -----------------------------------------------------------------------------

  PAW_PBE C 08Apr2002                   :
 energy of atom  1       EATOM= -147.1560
 kinetic energy error for atom=    0.0076 (will be added to EATOM!!)
  PAW_PBE H 15Jun2001                   :
 energy of atom  2       EATOM=  -12.4884
 kinetic energy error for atom=    0.0020 (will be added to EATOM!!)
  PAW_PBE N 08Apr2002                   :
 energy of atom  3       EATOM= -264.5486
 kinetic energy error for atom=    0.0138 (will be added to EATOM!!)
  PAW_PBE O 08Apr2002                   :
 energy of atom  4       EATOM= -432.3788
 kinetic energy error for atom=    0.0224 (will be added to EATOM!!)
 
 
 POSCAR: Molecule_POSCAR_05
  positions in cartesian coordinates
  No initial velocities read in
 exchange correlation table for  LEXCH =       11
   RHO(1)=    0.500       N(1)  =     2000
   RHO(2)=  100.500       N(2)  =     4000
 


--------------------------------------------------------------------------------------------------------


 ion  position               nearest neighbor table
   1  0.460  0.440  0.439-   7 1.10   6 1.11   8 1.12   2 1.52
   2  0.485  0.475  0.502-   9 1.09  15 1.42   5 1.50   1 1.52
   3  0.587  0.526  0.542-  12 1.09  11 1.12  15 1.42   4 1.48
   4  0.655  0.542  0.517-  16 1.16   3 1.48
   5  0.442  0.535  0.510-  18 1.25  17 1.42   2 1.50
   6  0.412  0.415  0.452-   1 1.11
   7  0.497  0.405  0.418-   1 1.10
   8  0.450  0.478  0.399-   1 1.12
   9  0.478  0.441  0.544-   2 1.09
  10  0.580  0.465  0.458-  15 1.02
  11  0.592  0.489  0.585-   3 1.12
  12  0.566  0.572  0.561-   3 1.09
  13  0.349  0.481  0.512-  17 1.04
  14  0.347  0.565  0.546-  17 1.03
  15  0.552  0.495  0.488-  10 1.02   3 1.42   2 1.42
  16  0.708  0.556  0.498-   4 1.16
  17  0.373  0.526  0.524-  14 1.03  13 1.04   5 1.42
  18  0.466  0.593  0.505-   5 1.25
 

IMPORTANT INFORMATION: All symmetrisations will be switched off!
NOSYMM: (Re-)initialisation of all symmetry stuff for point group C_1.


----------------------------------------------------------------------------------------

                                     Primitive cell                                     

  volume of cell :    8000.0000

  direct lattice vectors                    reciprocal lattice vectors
    20.000000000  0.000000000  0.000000000     0.050000000  0.000000000  0.000000000
     0.000000000 20.000000000  0.000000000     0.000000000  0.050000000  0.000000000
     0.000000000  0.000000000 20.000000000     0.000000000  0.000000000  0.050000000

  length of vectors
    20.000000000 20.000000000 20.000000000     0.050000000  0.050000000  0.050000000

  position of ions in fractional coordinates (direct lattice)
     0.459898850  0.439747250  0.438946850
     0.485380500  0.474735650  0.501514100
     0.587278350  0.525702300  0.542206250
     0.654967200  0.542455600  0.516820400
     0.441872250  0.535084150  0.510162600
     0.412084050  0.415235050  0.452231950
     0.497214600  0.405363050  0.418125950
     0.450457400  0.478165850  0.399188550
     0.478169050  0.441069650  0.543697850
     0.579824900  0.465131600  0.457823600
     0.591864500  0.489399350  0.584673750
     0.565804200  0.572214100  0.561112700
     0.349325000  0.481162200  0.512340850
     0.347007500  0.564546450  0.545633150
     0.552226050  0.495315950  0.488450300
     0.707959450  0.556146500  0.497788000
     0.372896850  0.525765000  0.523883500
     0.465769400  0.592760400  0.505399550

  ion indices of the primitive-cell ions
   primitive index   ion index
                 1           1
                 2           2
                 3           3
                 4           4
                 5           5
                 6           6
                 7           7
                 8           8
                 9           9
                10          10
                11          11
                12          12
                13          13
                14          14
                15          15
                16          16
                17          17
                18          18

----------------------------------------------------------------------------------------

 
 
 KPOINTS: Gamma-point only                        

Automatic generation of k-mesh.
 Grid dimensions read from file:
 generate k-points for:    1    1    1

 Generating k-lattice:

  Cartesian coordinates                     Fractional coordinates (reciprocal lattice)
     0.050000000  0.000000000  0.000000000     1.000000000  0.000000000  0.000000000
     0.000000000  0.050000000  0.000000000     0.000000000  1.000000000  0.000000000
     0.000000000  0.000000000  0.050000000     0.000000000  0.000000000  1.000000000

  Length of vectors
     0.050000000  0.050000000  0.050000000

  Shift w.r.t. Gamma in fractional coordinates (k-lattice)
     0.000000000  0.000000000  0.000000000

 
 Subroutine IBZKPT returns following result:
 ===========================================
 
 Found      1 irreducible k-points:
 
 Following reciprocal coordinates:
            Coordinates               Weight
  0.000000  0.000000  0.000000      1.000000
 
 Following cartesian coordinates:
            Coordinates               Weight
  0.000000  0.000000  0.000000      1.000000
 
 
 Subroutine IBZKPT_HF returns following result:
 ==============================================
 
 Found      1 k-points in 1st BZ
 the following      1 k-points will be used (e.g. in the exchange kernel)
 Following reciprocal coordinates:   # in IRBZ
  0.000000  0.000000  0.000000    1.00000000   1 t-inv F


--------------------------------------------------------------------------------------------------------




 Dimension of arrays:
   k-points           NKPTS =      1   k-points in BZ     NKDIM =      1   number of bands    NBANDS=     40
   number of dos      NEDOS =   2000   number of ions     NIONS =     18
   non local maximal  LDIM  =      4   non local SUM 2l+1 LMDIM =      8
   total plane-waves  NPLWV = ******
   max r-space proj   IRMAX =      1   max aug-charges    IRDMAX=   5672
   dimension x,y,z NGX =   150 NGY =  150 NGZ =  150
   dimension x,y,z NGXF=   300 NGYF=  300 NGZF=  300
   support grid    NGXF=   300 NGYF=  300 NGZF=  300
   ions per type =               5   9   3   1
   NGX,Y,Z   is equivalent  to a cutoff of  12.47, 12.47, 12.47 a.u.
   NGXF,Y,Z  is equivalent  to a cutoff of  24.94, 24.94, 24.94 a.u.

 SYSTEM =  QM9_Benchmark_B3LYP_Gap_Dipole          
 POSCAR =  Molecule_POSCAR_05                      

 Startparameter for this run:
   NWRITE =      2    write-flag & timer
   PREC   = accura    normal or accurate (medium, high low for compatibility)
   ISTART =      0    job   : 0-new  1-cont  2-samecut
   ICHARG =      2    charge: 1-file 2-atom 10-const
   ISPIN  =      1    spin polarized calculation?
   LNONCOLLINEAR =      F non collinear calculations
   LSORBIT =      F    spin-orbit coupling
   INIWAV =      1    electr: 0-lowe 1-rand  2-diag
   LASPH  =      F    aspherical Exc in radial PAW
 Electronic Relaxation 1
   ENCUT  =  500.0 eV  36.75 Ry    6.06 a.u.  36.46 36.46 36.46*2*pi/ulx,y,z
   ENINI  =  500.0     initial cutoff
   ENAUG  =  644.9 eV  augmentation charge cutoff
   NELM   =    100;   NELMIN=  2; NELMDL=  0     # of ELM steps 
   EDIFF  = 0.1E-05   stopping-criterion for ELM
   LREAL  =      F    real-space projection
   NLSPLINE    = F    spline interpolate recip. space projectors
   LCOMPAT=      F    compatible to vasp.4.4
   GGA_COMPAT  = T    GGA compatible to vasp.4.4-vasp.4.6
   LMAXPAW     = -100 max onsite density
   LMAXMIX     =    2 max onsite mixed and CHGCAR
   VOSKOWN=      0    Vosko Wilk Nusair interpolation
   ROPT   =    0.00000   0.00000   0.00000   0.00000
 Ionic relaxation
   EDIFFG = 0.1E-04   stopping-criterion for IOM
   NSW    =      0    number of steps for IOM
   NBLOCK =      1;   KBLOCK =      1    inner block; outer block 
   IBRION =     -1    ionic relax: 0-MD 1-quasi-New 2-CG
   NFREE  =      0    steps in history (QN), initial steepest desc. (CG)
   ISIF   =      0    stress and relaxation
   IWAVPR =     10    prediction:  0-non 1-charg 2-wave 3-comb
   ISYM   =      0    0-nonsym 1-usesym 2-fastsym
   LCORR  =      T    Harris-Foulkes like correction to forces

   POTIM  = 0.5000    time-step for ionic-motion
   TEIN   =    0.0    initial temperature
   TEBEG  =    0.0;   TEEND  =   0.0 temperature during run
   SMASS  =  -3.00    Nose mass-parameter (am)
   estimated Nose-frequenzy (Omega)   =  0.10E-29 period in steps = 0.13E+47 mass=  -0.914E-26a.u.
   SCALEE = 1.0000    scale energy and forces
   NPACO  =    256;   APACO  = 10.0  distance and # of slots for P.C.
   PSTRESS=    0.0 pullay stress

  Mass of Ions in am
   POMASS =  12.01  1.00 14.00 16.00
  Ionic Valenz
   ZVAL   =   4.00  1.00  5.00  6.00
  Atomic Wigner-Seitz radii
   RWIGS  =  -1.00 -1.00 -1.00 -1.00
  virtual crystal weights 
   VCA    =   1.00  1.00  1.00  1.00
   NELECT =      50.0000    total number of electrons
   NUPDOWN=      -1.0000    fix difference up-down

 DOS related values:
   EMIN   =  10.00;   EMAX   =-10.00  energy-range for DOS
   EFERMI =   0.00;   METHOD = LEGACY      
   ISMEAR =     0;   SIGMA  =   0.05  broadening in eV -4-tet -1-fermi 0-gaus

 Electronic relaxation 2 (details)
   IALGO  =     53    algorithm
   LDIAG  =      T    sub-space diagonalisation (order eigenvalues)
   LSUBROT=      F    optimize rotation matrix (better conditioning)
   TURBO    =      0    0=normal 1=particle mesh
   IRESTART =      0    0=no restart 2=restart with 2 vectors
   NREBOOT  =      0    no. of reboots
   NMIN     =      0    reboot dimension
   EREF     =   0.00    reference energy to select bands
   IMIX   =      4    mixing-type and parameters
     AMIX     =   0.40;   BMIX     =  1.00
     AMIX_MAG =   1.60;   BMIX_MAG =  1.00
     AMIN     =   0.10
     WC   =   100.;   INIMIX=   1;  MIXPRE=   1;  MAXMIX= -45

 Intra band minimization:
   WEIMIN = 0.0000     energy-eigenvalue tresh-hold
   EBREAK =  0.62E-08  absolut break condition
   DEPER  =   0.30     relativ break condition  

   TIME   =   0.40     timestep for ELM

  volume/ion in A,a.u.               =     444.44      2999.26
  Fermi-wavevector in a.u.,A,eV,Ry     =   0.301556  0.569858  1.237261  0.090936
  Thomas-Fermi vector in A             =   1.170949
 
 Write flags
   LWAVE        =      T    write WAVECAR
   LDOWNSAMPLE  =      F    k-point downsampling of WAVECAR
   LCHARG       =      T    write CHGCAR
   LVTOT        =      F    write LOCPOT, total local potential
   LVHAR        =      F    write LOCPOT, Hartree potential only
   LELF         =      F    write electronic localiz. function (ELF)
   LORBIT       =     11    0 simple, 1 ext, 2 COOP (PROOUT), +10 PAW based schemes


 Dipole corrections
   LMONO  =      F    monopole corrections only (constant potential shift)
   LDIPOL =      T    correct potential (dipole corrections)
   IDIPOL =      4    1-x, 2-y, 3-z, 4-all directions 
   EPSILON=  1.0000000 bulk dielectric constant

 Exchange correlation treatment:
   GGA     =    B3    GGA type
   LEXCH   =    11    internal setting for exchange type
   LIBXC   =     F    Libxc                    
   VOSKOWN =     0    Vosko Wilk Nusair interpolation
   EXXOEP  =     0    0=HF, 1=EXX-LHF (local Hartree Fock) 2=EXX OEP
   LHFCALC =     T    Hartree Fock is set to
   LSYMGRAD=     F    symmetrize gradient (conserves proper symmetry)
   PRECFOCK=normal    Normal, Fast or Accurate (Low or Medium for compatibility)
   LRHFCALC=     F    long range Hartree Fock
   LRSCOR  =     F    long range correlation only (use DFT for short range part)
   LTHOMAS =     F    Thomas Fermi screening in HF
   LMODELHF=     F    short range full HF, long range fraction AEXX
   FOCKCORR=     1    mode to apply convergence corrections
   LFOCKACE=     T    use Adeptively-Compressed-Exchange operator
   ENCUT4O =  -1.0   cutoff for four orbital integrals eV
   LMAXFOCK=     4    L truncation for augmentation on plane wave grid
   LMAXFOCKAE=  -1    L truncation for all-electron charge restoration on plane wave grid
   NMAXFOCKAE=   1    number of basis functions for all-electron charge restoration
   LFOCKAEDFT=     F  apply the AE augmentation even for DFT
   NKREDX  =     1    reduce k-point grid by
   NKREDY  =     1    reduce k-point grid by
   NKREDZ  =     1    reduce k-point grid by
   SHIFTRED=     F    shift reduced grid of Gamma
   HFKIDENT=     F    idential grid for each k-point
   ODDONLY =     F    use only odd q-grid points
   EVENONLY=     F    use only even q-grid points
   HFALPHA =   -1.0000 decay constant for conv. correction
   MCALPHA =    0.0000 extent of test-charge in conv. correction in multipole expansion
   AEXX    =    0.2000 exact exchange contribution
   HFSCREEN=    0.0000 screening length (either q_TF or 0.3 A-1)
   HFSCREENC=   0.0000 screening length for correlation (either q_TF or 0.3 A-1)
   HFRCUT  =    0.0000 spherical cutoff for potential kernel
   ALDAX   =    0.8000 LDA exchange part
   AGGAX   =    0.7200 GGA exchange part
   ALDAC   =    0.1900 LDA correlation
   AGGAC   =    0.8100 GGA correlation
   ENCUTFOCK=  -1.0 apply spherical cutoff to Coloumb kernel
   NBANDSGWLOW=     1    first orbital included in HF term
   NBLOCK_FOCK=    64    blocking factor in FOCK_ACC

 Linear response parameters
   LEPSILON=     F    determine dielectric tensor
   LRPA    =     F    only Hartree local field effects (RPA)
   LNABLA  =     F    use nabla operator in PAW spheres
   LVEL    =     F    velocity operator in full k-point grid
   CSHIFT  =0.1000    complex shift for real part using Kramers Kronig
   OMEGAMAX=  -1.0    maximum frequency
   DEG_THRESHOLD= 0.2000000E-02 threshold for treating states as degnerate
   RTIME   =   -0.100 relaxation time in fs
  (WPLASMAI=    0.000 imaginary part of plasma frequency in eV, 0.658/RTIME)
   DFIELD  = 0.0000000 0.0000000 0.0000000 field for delta impulse in time
 
  Optional k-point grid parameters
   LKPOINTS_OPT  =     F    use optional k-point grid
   KPOINTS_OPT_MODE=     1    mode for optional k-point grid
 
 Orbital magnetization related:
   ORBITALMAG=     F  switch on orbital magnetization
   LCHIMAG   =     F  perturbation theory with respect to B field
   DQ        =  0.001000  dq finite difference perturbation B field
   LLRAUG    =     F  two centre corrections for induced B field
   LBONE     =     F  B-component reconstruction in AE one-centre
   LVGVCALC  =     T  calculate vGv susceptibility
   LVGVAPPL  =     F  apply vGv susceptibility instead of pGv for G=0

 Random number generation:
   RANDOM_GENERATOR = DEFAULT
   PCG_SEED         = not used


--------------------------------------------------------------------------------------------------------


 Static calculation
 charge density and potential will be updated during run
 non-spin polarized calculation
 Conjugate gradient for all bands (Freysoldt, et al. PRB 79, 241103 (2009))
 perform sub-space diagonalisation
    before iterative eigenvector-optimisation
 modified Broyden-mixing scheme, WC =      100.0
 initial mixing is a Kerker type mixing with AMIX =  0.4000 and BMIX =      1.0000
 Hartree-type preconditioning will be used
 using additional bands           15
 reciprocal scheme for non local part
 use partial core corrections
 no Harris-corrections to forces 
 use gradient corrections 
 use of overlap-Matrix (Vanderbilt PP)
 Gauss-broadening in eV      SIGMA  =   0.05


--------------------------------------------------------------------------------------------------------


  energy-cutoff  :      500.00
  volume of cell :     8000.00
      direct lattice vectors                 reciprocal lattice vectors
    20.000000000  0.000000000  0.000000000     0.050000000  0.000000000  0.000000000
     0.000000000 20.000000000  0.000000000     0.000000000  0.050000000  0.000000000
     0.000000000  0.000000000 20.000000000     0.000000000  0.000000000  0.050000000

  length of vectors
    20.000000000 20.000000000 20.000000000     0.050000000  0.050000000  0.050000000


 
 k-points in units of 2pi/SCALE and weight: Gamma-point only                        
   0.00000000  0.00000000  0.00000000       1.000
 
 k-points in reciprocal lattice and weights: Gamma-point only                        
   0.00000000  0.00000000  0.00000000       1.000
 
 position of ions in fractional coordinates (direct lattice) 
   0.45989885  0.43974725  0.43894685
   0.48538050  0.47473565  0.50151410
   0.58727835  0.52570230  0.54220625
   0.65496720  0.54245560  0.51682040
   0.44187225  0.53508415  0.51016260
   0.41208405  0.41523505  0.45223195
   0.49721460  0.40536305  0.41812595
   0.45045740  0.47816585  0.39918855
   0.47816905  0.44106965  0.54369785
   0.57982490  0.46513160  0.45782360
   0.59186450  0.48939935  0.58467375
   0.56580420  0.57221410  0.56111270
   0.34932500  0.48116220  0.51234085
   0.34700750  0.56454645  0.54563315
   0.55222605  0.49531595  0.48845030
   0.70795945  0.55614650  0.49778800
   0.37289685  0.52576500  0.52388350
   0.46576940  0.59276040  0.50539955
 
 position of ions in cartesian coordinates  (Angst):
   9.19797700  8.79494500  8.77893700
   9.70761000  9.49471300 10.03028200
  11.74556700 10.51404600 10.84412500
  13.09934400 10.84911200 10.33640800
   8.83744500 10.70168300 10.20325200
   8.24168100  8.30470100  9.04463900
   9.94429200  8.10726100  8.36251900
   9.00914800  9.56331700  7.98377100
   9.56338100  8.82139300 10.87395700
  11.59649800  9.30263200  9.15647200
  11.83729000  9.78798700 11.69347500
  11.31608400 11.44428200 11.22225400
   6.98650000  9.62324400 10.24681700
   6.94015000 11.29092900 10.91266300
  11.04452100  9.90631900  9.76900600
  14.15918900 11.12293000  9.95576000
   7.45793700 10.51530000 10.47767000
   9.31538800 11.85520800 10.10799100
 


--------------------------------------------------------------------------------------------------------


 k-point   1 :   0.0000 0.0000 0.0000  plane waves:  203269

 maximum and minimum number of plane-waves per node :     50840    50799

 maximum number of plane-waves:    203269
 maximum index in each direction: 
   IXMAX=   36   IYMAX=   36   IZMAX=   36
   IXMIN=  -36   IYMIN=  -36   IZMIN=  -36


 parallel 3D FFT for wavefunctions:
    minimum data exchange during FFTs selected (reduces bandwidth)
 parallel 3D FFT for charge:
    minimum data exchange during FFTs selected (reduces bandwidth)


 FFT grid for exact exchange (Hartree Fock) 
  NGX =112; NGY =112; NGZ =112

 
 Radii for the augmentation spheres in the non-local exchange
 for species   1 augmentation radius   0.874 (default was   0.699)
       energy cutoff for augmentation   2000.0
 for species   2 augmentation radius   0.650 (default was   0.520)
       energy cutoff for augmentation   2000.0
 for species   3 augmentation radius   0.886 (default was   0.709)
       energy cutoff for augmentation   2000.0
 for species   4 augmentation radius   0.902 (default was   0.722)
       energy cutoff for augmentation   2000.0

 real space projection operators:
  total allocation   :        446.77 KBytes
  max/ min on nodes  :        113.98        109.48

 Maximum index for augmentation-charges in exchange          139
  SETUP_FOCK is finished

 total amount of memory used by VASP MPI-rank0   245345. kBytes
=======================================================================

   base      :      30000. kBytes
   nonl-proj :      27652. kBytes
   fftplans  :      75720. kBytes
   grid      :      99427. kBytes
   one-center:         15. kBytes
   HF        :         13. kBytes
   nonlr-proj:        311. kBytes
   wavefun   :      12207. kBytes
 
     INWAV:  cpu time      0.0000: real time      0.0000
 Broyden mixing: mesh for mixing (old mesh)
   NGX = 73   NGY = 73   NGZ = 73
  (NGX  =300   NGY  =300   NGZ  =300)
  gives a total of 389017 points

 initial charge density was supplied:
 charge density of overlapping atoms calculated
 number of electron      50.0000000 magnetization 
 charge density for first step will be calculated from the start-wavefunctions


--------------------------------------------------------------------------------------------------------


 Maximum index for augmentation-charges          284 (set IRDMAX)


--------------------------------------------------------------------------------------------------------


    FEWALD:  cpu time      0.0004: real time      0.0004


--------------------------------------- Ionic step        1  -------------------------------------------




--------------------------------------- Iteration      1(   1)  ---------------------------------------


    POTLOK:  cpu time      0.4013: real time      0.4042
    SETDIJ:  cpu time      0.0030: real time      0.0030
    TRIAL :  cpu time      0.8480: real time      0.8542
    CORREC:  cpu time      0.0018: real time      0.0020
    --------------------------------------------
      LOOP:  cpu time      1.2566: real time      1.2880

 eigenvalue-minimisations  :    80
 total energy-change (2. order) : 0.7064576E+03  (-0.5946730E+03)
 number of electron      50.0000000 magnetization 
 augmentation part       50.0000000 magnetization 

 DIPCOR: dipole corrections for dipol
 direction  1 min pos     1, direction  2 min pos     1, direction  3 min pos     1,
 dipolmoment          -0.000043     -0.000017      0.000002 electrons x Angstroem
 Tr[quadrupol]        36.691476

 energy correction for charged system         0.000000 eV
 dipol+quadrupol energy correction           -0.000000 eV
 added-field ion interaction          0.000007 eV  (added to PSCEN)


 Free energy of the ion-electron system (eV)
  ---------------------------------------------------
  alpha Z        PSCENC =         1.32760423
  Ewald energy   TEWEN  =      3901.13736820
  -Hartree energ DENC   =     -5391.24379487
  -exchange      EXHF   =         0.00000000
  -V(xc)+E(xc)   XCENC  =       172.92872063
  PAW double counting   =      1523.16415055    -1710.24387015
  entropy T*S    EENTRO =        -0.00029804
  eigenvalues    EBANDS =       150.11820295
  atomic energy  EATOM  =      2059.26955741
  ---------------------------------------------------
  free energy    TOTEN  =       706.45764091 eV

  energy without entropy =      706.45793894  energy(sigma->0) =      706.45778993
  exchange ACFDT corr.  =         0.00000000  see jH, gK, PRB 81, 115126


--------------------------------------------------------------------------------------------------------




--------------------------------------- Iteration      1(   2)  ---------------------------------------


    TRIAL :  cpu time      1.4203: real time      1.4428
    CORREC:  cpu time      0.0011: real time      0.0011
    --------------------------------------------
      LOOP:  cpu time      1.4216: real time      1.4441

 eigenvalue-minimisations  :   160
 total energy-change (2. order) :-0.2188962E+03  (-0.2036349E+03)
 number of electron      50.0000000 magnetization 
 augmentation part       50.0000000 magnetization 

 DIPCOR: dipole corrections for dipol
 direction  1 min pos     1, direction  2 min pos     1, direction  3 min pos     1,
 dipolmoment          -0.000043     -0.000017      0.000002 electrons x Angstroem
 Tr[quadrupol]        36.691476

 energy correction for charged system         0.000000 eV
 dipol+quadrupol energy correction           -0.000000 eV
 added-field ion interaction          0.000007 eV  (added to PSCEN)


 Free energy of the ion-electron system (eV)
  ---------------------------------------------------
  alpha Z        PSCENC =         1.32760423
  Ewald energy   TEWEN  =      3901.13736820
  -Hartree energ DENC   =     -5391.24379487
  -exchange      EXHF   =         0.00000000
  -V(xc)+E(xc)   XCENC  =       172.92872063
  PAW double counting   =      1523.16415055    -1710.24387015
  entropy T*S    EENTRO =        -0.00042341
  eigenvalues    EBANDS =       -68.77784166
  atomic energy  EATOM  =      2059.26955741
  ---------------------------------------------------
  free energy    TOTEN  =       487.56147092 eV

  energy without entropy =      487.56189434  energy(sigma->0) =      487.56168263
  exchange ACFDT corr.  =         0.00000000  see jH, gK, PRB 81, 115126


--------------------------------------------------------------------------------------------------------




--------------------------------------- Iteration      1(   3)  ---------------------------------------


    TRIAL :  cpu time      1.4189: real time      1.4291
    CORREC:  cpu time      0.0011: real time      0.0012
    --------------------------------------------
      LOOP:  cpu time      1.4200: real time      1.4304

 eigenvalue-minimisations  :   160
 total energy-change (2. order) :-0.2993188E+03  (-0.2715416E+03)
 number of electron      50.0000000 magnetization 
 augmentation part       50.0000000 magnetization 

 DIPCOR: dipole corrections for dipol
 direction  1 min pos     1, direction  2 min pos     1, direction  3 min pos     1,
 dipolmoment          -0.000043     -0.000017      0.000002 electrons x Angstroem
 Tr[quadrupol]        36.691476

 energy correction for charged system         0.000000 eV
 dipol+quadrupol energy correction           -0.000000 eV
 added-field ion interaction          0.000007 eV  (added to PSCEN)


 Free energy of the ion-electron system (eV)
  ---------------------------------------------------
  alpha Z        PSCENC =         1.32760423
  Ewald energy   TEWEN  =      3901.13736820
  -Hartree energ DENC   =     -5391.24379487
  -exchange      EXHF   =         0.00000000
  -V(xc)+E(xc)   XCENC  =       172.92872063
  PAW double counting   =      1523.16415055    -1710.24387015
  entropy T*S    EENTRO =        -0.05395600
  eigenvalues    EBANDS =      -368.04307885
  atomic energy  EATOM  =      2059.26955741
  ---------------------------------------------------
  free energy    TOTEN  =       188.24270115 eV

  energy without entropy =      188.29665714  energy(sigma->0) =      188.26967915
  exchange ACFDT corr.  =         0.00000000  see jH, gK, PRB 81, 115126


--------------------------------------------------------------------------------------------------------




--------------------------------------- Iteration      1(   4)  ---------------------------------------


    TRIAL :  cpu time      1.4222: real time      1.4328
    CORREC:  cpu time      0.0010: real time      0.0011
    --------------------------------------------
      LOOP:  cpu time      1.4233: real time      1.4341

 eigenvalue-minimisations  :   160
 total energy-change (2. order) :-0.2621518E+03  (-0.2474679E+03)
 number of electron      50.0000000 magnetization 
 augmentation part       50.0000000 magnetization 

 DIPCOR: dipole corrections for dipol
 direction  1 min pos     1, direction  2 min pos     1, direction  3 min pos     1,
 dipolmoment          -0.000043     -0.000017      0.000002 electrons x Angstroem
 Tr[quadrupol]        36.691476

 energy correction for charged system         0.000000 eV
 dipol+quadrupol energy correction           -0.000000 eV
 added-field ion interaction          0.000007 eV  (added to PSCEN)


 Free energy of the ion-electron system (eV)
  ---------------------------------------------------
  alpha Z        PSCENC =         1.32760423
  Ewald energy   TEWEN  =      3901.13736820
  -Hartree energ DENC   =     -5391.24379487
  -exchange      EXHF   =         0.00000000
  -V(xc)+E(xc)   XCENC  =       172.92872063
  PAW double counting   =      1523.16415055    -1710.24387015
  entropy T*S    EENTRO =        -0.00465000
  eigenvalues    EBANDS =      -630.24414590
  atomic energy  EATOM  =      2059.26955741
  ---------------------------------------------------
  free energy    TOTEN  =       -73.90905991 eV

  energy without entropy =      -73.90440991  energy(sigma->0) =      -73.90673491
  exchange ACFDT corr.  =         0.00000000  see jH, gK, PRB 81, 115126


--------------------------------------------------------------------------------------------------------




--------------------------------------- Iteration      1(   5)  ---------------------------------------


    POTLOK:  cpu time      0.7863: real time      0.7895
    SETDIJ:  cpu time      0.0021: real time      0.0021
    TRIAL :  cpu time      6.4234: real time      6.4618
    CORREC:  cpu time      0.0003: real time      0.0003
    CHARGE:  cpu time      0.1090: real time      0.1100
    --------------------------------------------
      LOOP:  cpu time      7.3213: real time      7.3640

 eigenvalue-minimisations  :   160
 total energy-change (2. order) : 0.3952578E+02  (-0.1420289E+03)
 number of electron      50.0000007 magnetization 
 augmentation part        2.0642166 magnetization 

 DIPCOR: dipole corrections for dipol
 direction  1 min pos     1, direction  2 min pos     1, direction  3 min pos     1,
 dipolmoment          -0.000043     -0.000017      0.000002 electrons x Angstroem
 Tr[quadrupol]        36.691476

 energy correction for charged system         0.000000 eV
 dipol+quadrupol energy correction           -0.000000 eV
 added-field ion interaction          0.000007 eV  (added to PSCEN)


 Free energy of the ion-electron system (eV)
  ---------------------------------------------------
  alpha Z        PSCENC =         1.32760423
  Ewald energy   TEWEN  =      3901.13736820
  -Hartree energ DENC   =     -5391.24379487
  -exchange      EXHF   =        77.02455507
  -V(xc)+E(xc)   XCENC  =       137.97609037
  PAW double counting   =      1552.12884406    -1561.47066608
  entropy T*S    EENTRO =        -0.00000000
  eigenvalues    EBANDS =      -810.53283992
  atomic energy  EATOM  =      2059.26955741
  ---------------------------------------------------
  free energy    TOTEN  =       -34.38328154 eV

  energy without entropy =      -34.38328154  energy(sigma->0) =      -34.38328154
  exchange ACFDT corr.  =        -0.01068385  see jH, gK, PRB 81, 115126


--------------------------------------------------------------------------------------------------------




--------------------------------------- Iteration      1(   6)  ---------------------------------------


    POTLOK:  cpu time      1.5661: real time      1.5717
    SETDIJ:  cpu time      0.0023: real time      0.0023
    TRIAL :  cpu time      5.0031: real time      5.0336
    CORREC:  cpu time      0.0003: real time      0.0003
    CHARGE:  cpu time      0.1078: real time      0.1087
    --------------------------------------------
      LOOP:  cpu time      6.6800: real time      6.7170

 eigenvalue-minimisations  :     0
 total energy-change (2. order) : 0.2874977E+02  (-0.3062835E+03)
 number of electron      50.0000008 magnetization 
 augmentation part        2.0593890 magnetization 

 DIPCOR: dipole corrections for dipol
 direction  1 min pos     1, direction  2 min pos     1, direction  3 min pos     1,
 dipolmoment           0.881657      1.287416      0.163427 electrons x Angstroem
 Tr[quadrupol]       441.353291

 energy correction for charged system         0.000000 eV
 dipol+quadrupol energy correction           -0.009279 eV
 added-field ion interaction         -0.262333 eV  (added to PSCEN)


 Free energy of the ion-electron system (eV)
  ---------------------------------------------------
  alpha Z        PSCENC =         1.05598468
  Ewald energy   TEWEN  =      3901.13736820
  -Hartree energ DENC   =     -4723.19482356
  -exchange      EXHF   =       101.72592375
  -V(xc)+E(xc)   XCENC  =       136.18704835
  PAW double counting   =      3898.80420913    -3910.53579375
  entropy T*S    EENTRO =        -0.00000000
  eigenvalues    EBANDS =     -1470.08299044
  atomic energy  EATOM  =      2059.26955741
  ---------------------------------------------------
  free energy    TOTEN  =        -5.63351624 eV

  energy without entropy =       -5.63351624  energy(sigma->0) =       -5.63351624
  exchange ACFDT corr.  =        -0.00000000  see jH, gK, PRB 81, 115126


--------------------------------------------------------------------------------------------------------




--------------------------------------- Iteration      1(   7)  ---------------------------------------


    POTLOK:  cpu time      1.3417: real time      1.3464
    SETDIJ:  cpu time      0.0065: real time      0.0066
    TRIAL :  cpu time      5.0020: real time      5.0333
    CORREC:  cpu time      0.0003: real time      0.0003
    CHARGE:  cpu time      0.1074: real time      0.1083
    --------------------------------------------
      LOOP:  cpu time      6.4584: real time      6.4953

 eigenvalue-minimisations  :     0
 total energy-change (2. order) :-0.8707008E+02  (-0.4417500E+02)
 number of electron      50.0000007 magnetization 
 augmentation part        1.8686653 magnetization 

 DIPCOR: dipole corrections for dipol
 direction  1 min pos     1, direction  2 min pos     1, direction  3 min pos     1,
 dipolmoment           1.232121      1.030080     -0.497050 electrons x Angstroem
 Tr[quadrupol]       139.449184

 energy correction for charged system         0.000000 eV
 dipol+quadrupol energy correction           -0.010654 eV
 added-field ion interaction         -0.260281 eV  (added to PSCEN)


 Free energy of the ion-electron system (eV)
  ---------------------------------------------------
  alpha Z        PSCENC =         1.05666242
  Ewald energy   TEWEN  =      3901.13736820
  -Hartree energ DENC   =     -5404.62711898
  -exchange      EXHF   =       109.84922409
  -V(xc)+E(xc)   XCENC  =       144.23450927
  PAW double counting   =      4233.61426661    -4245.14252882
  entropy T*S    EENTRO =        -0.00000000
  eigenvalues    EBANDS =      -892.09554113
  atomic energy  EATOM  =      2059.26955741
  ---------------------------------------------------
  free energy    TOTEN  =       -92.70360094 eV

  energy without entropy =      -92.70360094  energy(sigma->0) =      -92.70360094
  exchange ACFDT corr.  =        -0.00000000  see jH, gK, PRB 81, 115126


--------------------------------------------------------------------------------------------------------




--------------------------------------- Iteration      1(   8)  ---------------------------------------


    POTLOK:  cpu time      0.8837: real time      0.8874
    SETDIJ:  cpu time      0.0022: real time      0.0022
    TRIAL :  cpu time      5.0092: real time      5.0429
    CORREC:  cpu time      0.0003: real time      0.0003
    CHARGE:  cpu time      0.1072: real time      0.1082
    --------------------------------------------
      LOOP:  cpu time      6.0029: real time      6.0413

 eigenvalue-minimisations  :     0
 total energy-change (2. order) :-0.1966615E+02  (-0.2033570E+02)
 number of electron      50.0000007 magnetization 
 augmentation part        1.8781359 magnetization 

 DIPCOR: dipole corrections for dipol
 direction  1 min pos     1, direction  2 min pos     1, direction  3 min pos     1,
 dipolmoment           1.068185      0.861440     -0.119482 electrons x Angstroem
 Tr[quadrupol]        84.571573

 energy correction for charged system         0.000000 eV
 dipol+quadrupol energy correction           -0.007153 eV
 added-field ion interaction         -0.226246 eV  (added to PSCEN)


 Free energy of the ion-electron system (eV)
  ---------------------------------------------------
  alpha Z        PSCENC =         1.09419826
  Ewald energy   TEWEN  =      3901.13736820
  -Hartree energ DENC   =     -5478.61692284
  -exchange      EXHF   =       109.66000696
  -V(xc)+E(xc)   XCENC  =       142.85091166
  PAW double counting   =      4255.99669687    -4266.72822295
  entropy T*S    EENTRO =        -0.00000000
  eigenvalues    EBANDS =      -837.03333967
  atomic energy  EATOM  =      2059.26955741
  ---------------------------------------------------
  free energy    TOTEN  =      -112.36974610 eV

  energy without entropy =     -112.36974610  energy(sigma->0) =     -112.36974610
  exchange ACFDT corr.  =        -0.00000000  see jH, gK, PRB 81, 115126


--------------------------------------------------------------------------------------------------------




--------------------------------------- Iteration      1(   9)  ---------------------------------------


    POTLOK:  cpu time      0.8551: real time      0.8596
    SETDIJ:  cpu time      0.0025: real time      0.0025
    TRIAL :  cpu time      5.0123: real time      5.0499
    CORREC:  cpu time      0.0003: real time      0.0003
    CHARGE:  cpu time      0.1075: real time      0.1085
    --------------------------------------------
      LOOP:  cpu time      5.9778: real time      6.0211

 eigenvalue-minimisations  :     0
 total energy-change (2. order) :-0.9460646E+01  (-0.4911759E+01)
 number of electron      50.0000008 magnetization 
 augmentation part        1.9268864 magnetization 

 DIPCOR: dipole corrections for dipol
 direction  1 min pos     1, direction  2 min pos     1, direction  3 min pos     1,
 dipolmoment           1.220042      0.950157     -0.120657 electrons x Angstroem
 Tr[quadrupol]        45.719552

 energy correction for charged system         0.000000 eV
 dipol+quadrupol energy correction           -0.009070 eV
 added-field ion interaction         -0.254439 eV  (added to PSCEN)


 Free energy of the ion-electron system (eV)
  ---------------------------------------------------
  alpha Z        PSCENC =         1.06408859
  Ewald energy   TEWEN  =      3901.13736820
  -Hartree energ DENC   =     -5561.73038094
  -exchange      EXHF   =       111.60100445
  -V(xc)+E(xc)   XCENC  =       144.61036835
  PAW double counting   =      4282.01145234    -4292.65979007
  entropy T*S    EENTRO =        -0.00000000
  eigenvalues    EBANDS =      -767.13406025
  atomic energy  EATOM  =      2059.26955741
  ---------------------------------------------------
  free energy    TOTEN  =      -121.83039191 eV

  energy without entropy =     -121.83039191  energy(sigma->0) =     -121.83039191
  exchange ACFDT corr.  =        -0.00000000  see jH, gK, PRB 81, 115126


--------------------------------------------------------------------------------------------------------




--------------------------------------- Iteration      1(  10)  ---------------------------------------


    POTLOK:  cpu time      0.8551: real time      0.8591
    SETDIJ:  cpu time      0.0025: real time      0.0025
    TRIAL :  cpu time      5.0096: real time      5.0478
    CORREC:  cpu time      0.0003: real time      0.0003
    CHARGE:  cpu time      0.1064: real time      0.1073
    --------------------------------------------
      LOOP:  cpu time      5.9743: real time      6.0174

 eigenvalue-minimisations  :     0
 total energy-change (2. order) :-0.2248947E+01  (-0.2453925E+01)
 number of electron      50.0000008 magnetization 
 augmentation part        1.9627202 magnetization 

 DIPCOR: dipole corrections for dipol
 direction  1 min pos     1, direction  2 min pos     1, direction  3 min pos     1,
 dipolmoment           1.270713      0.949373     -0.257777 electrons x Angstroem
 Tr[quadrupol]        38.735228

 energy correction for charged system         0.000000 eV
 dipol+quadrupol energy correction           -0.009735 eV
 added-field ion interaction         -0.258070 eV  (added to PSCEN)


 Free energy of the ion-electron system (eV)
  ---------------------------------------------------
  alpha Z        PSCENC =         1.05979167
  Ewald energy   TEWEN  =      3901.13736820
  -Hartree energ DENC   =     -5587.29216830
  -exchange      EXHF   =       112.71880833
  -V(xc)+E(xc)   XCENC  =       145.86936328
  PAW double counting   =      4269.81230499    -4280.59069004
  entropy T*S    EENTRO =        -0.00000000
  eigenvalues    EBANDS =      -746.06367490
  atomic energy  EATOM  =      2059.26955741
  ---------------------------------------------------
  free energy    TOTEN  =      -124.07933936 eV

  energy without entropy =     -124.07933936  energy(sigma->0) =     -124.07933936
  exchange ACFDT corr.  =        -0.00000000  see jH, gK, PRB 81, 115126


--------------------------------------------------------------------------------------------------------




--------------------------------------- Iteration      1(  11)  ---------------------------------------


    POTLOK:  cpu time      0.8793: real time      0.8833
    SETDIJ:  cpu time      0.0025: real time      0.0025
    TRIAL :  cpu time      4.9811: real time      5.0142
    CORREC:  cpu time      0.0004: real time      0.0004
    CHARGE:  cpu time      0.1069: real time      0.1078
    --------------------------------------------
      LOOP:  cpu time      5.9744: real time      6.0124

 eigenvalue-minimisations  :     0
 total energy-change (2. order) :-0.1469296E+01  (-0.1115275E+01)
 number of electron      50.0000008 magnetization 
 augmentation part        1.9731188 magnetization 

 DIPCOR: dipole corrections for dipol
 direction  1 min pos     1, direction  2 min pos     1, direction  3 min pos     1,
 dipolmoment           1.262970      0.985276     -0.291377 electrons x Angstroem
 Tr[quadrupol]        33.176686

 energy correction for charged system         0.000000 eV
 dipol+quadrupol energy correction           -0.009993 eV
 added-field ion interaction         -0.261180 eV  (added to PSCEN)


 Free energy of the ion-electron system (eV)
  ---------------------------------------------------
  alpha Z        PSCENC =         1.05642504
  Ewald energy   TEWEN  =      3901.13736820
  -Hartree energ DENC   =     -5604.49345010
  -exchange      EXHF   =       113.23105683
  -V(xc)+E(xc)   XCENC  =       146.43696365
  PAW double counting   =      4259.08730152    -4269.99011500
  entropy T*S    EENTRO =        -0.00000000
  eigenvalues    EBANDS =      -731.28374331
  atomic energy  EATOM  =      2059.26955741
  ---------------------------------------------------
  free energy    TOTEN  =      -125.54863576 eV

  energy without entropy =     -125.54863576  energy(sigma->0) =     -125.54863576
  exchange ACFDT corr.  =        -0.00000000  see jH, gK, PRB 81, 115126


--------------------------------------------------------------------------------------------------------




--------------------------------------- Iteration      1(  12)  ---------------------------------------


    POTLOK:  cpu time      0.8546: real time      0.8584
    SETDIJ:  cpu time      0.0026: real time      0.0026
    TRIAL :  cpu time      4.9816: real time      5.0148
    CORREC:  cpu time      0.0003: real time      0.0003
    CHARGE:  cpu time      0.1069: real time      0.1078
    --------------------------------------------
      LOOP:  cpu time      5.9463: real time      5.9842

 eigenvalue-minimisations  :     0
 total energy-change (2. order) :-0.6527024E+00  (-0.4037709E+00)
 number of electron      50.0000008 magnetization 
 augmentation part        1.9741322 magnetization 

 DIPCOR: dipole corrections for dipol
 direction  1 min pos     1, direction  2 min pos     1, direction  3 min pos     1,
 dipolmoment           1.261629      0.994664     -0.298157 electrons x Angstroem
 Tr[quadrupol]        30.948014

 energy correction for charged system         0.000000 eV
 dipol+quadrupol energy correction           -0.010065 eV
 added-field ion interaction         -0.262098 eV  (added to PSCEN)


 Free energy of the ion-electron system (eV)
  ---------------------------------------------------
  alpha Z        PSCENC =         1.05543452
  Ewald energy   TEWEN  =      3901.13736820
  -Hartree energ DENC   =     -5605.43183899
  -exchange      EXHF   =       113.22112543
  -V(xc)+E(xc)   XCENC  =       146.40444981
  PAW double counting   =      4248.89554958    -4259.83698915
  entropy T*S    EENTRO =        -0.00000000
  eigenvalues    EBANDS =      -730.91599497
  atomic energy  EATOM  =      2059.26955741
  ---------------------------------------------------
  free energy    TOTEN  =      -126.20133815 eV

  energy without entropy =     -126.20133815  energy(sigma->0) =     -126.20133815
  exchange ACFDT corr.  =        -0.00000000  see jH, gK, PRB 81, 115126


--------------------------------------------------------------------------------------------------------




--------------------------------------- Iteration      1(  13)  ---------------------------------------


    POTLOK:  cpu time      0.8557: real time      0.8598
    SETDIJ:  cpu time      0.0025: real time      0.0025
    TRIAL :  cpu time      4.9807: real time      5.0133
    CORREC:  cpu time      0.0003: real time      0.0003
    CHARGE:  cpu time      0.1071: real time      0.1079
    --------------------------------------------
      LOOP:  cpu time      5.9469: real time      5.9973

 eigenvalue-minimisations  :     0
 total energy-change (2. order) :-0.2408435E+00  (-0.1700636E+00)
 number of electron      50.0000008 magnetization 
 augmentation part        1.9749429 magnetization 

 DIPCOR: dipole corrections for dipol
 direction  1 min pos     1, direction  2 min pos     1, direction  3 min pos     1,
 dipolmoment           1.252478      0.984091     -0.291268 electrons x Angstroem
 Tr[quadrupol]        30.364152

 energy correction for charged system         0.000000 eV
 dipol+quadrupol energy correction           -0.009884 eV
 added-field ion interaction         -0.259848 eV  (added to PSCEN)


 Free energy of the ion-electron system (eV)
  ---------------------------------------------------
  alpha Z        PSCENC =         1.05786558
  Ewald energy   TEWEN  =      3901.13736820
  -Hartree energ DENC   =     -5603.01339804
  -exchange      EXHF   =       113.14718247
  -V(xc)+E(xc)   XCENC  =       146.31163831
  PAW double counting   =      4245.96804552    -4256.91172850
  entropy T*S    EENTRO =        -0.00000000
  eigenvalues    EBANDS =      -733.40871264
  atomic energy  EATOM  =      2059.26955741
  ---------------------------------------------------
  free energy    TOTEN  =      -126.44218170 eV

  energy without entropy =     -126.44218170  energy(sigma->0) =     -126.44218170
  exchange ACFDT corr.  =        -0.00000000  see jH, gK, PRB 81, 115126


--------------------------------------------------------------------------------------------------------




--------------------------------------- Iteration      1(  14)  ---------------------------------------


    POTLOK:  cpu time      0.8545: real time      0.8578
    SETDIJ:  cpu time      0.0028: real time      0.0028
    TRIAL :  cpu time      4.9802: real time      5.0084
    CORREC:  cpu time      0.0003: real time      0.0004
    CHARGE:  cpu time      0.1073: real time      0.1079
    --------------------------------------------
      LOOP:  cpu time      5.9452: real time      5.9773

 eigenvalue-minimisations  :     0
 total energy-change (2. order) :-0.1101841E+00  (-0.7832867E-01)
 number of electron      50.0000008 magnetization 
 augmentation part        1.9755492 magnetization 

 DIPCOR: dipole corrections for dipol
 direction  1 min pos     1, direction  2 min pos     1, direction  3 min pos     1,
 dipolmoment           1.238670      0.970487     -0.281408 electrons x Angstroem
 Tr[quadrupol]        30.057308

 energy correction for charged system         0.000000 eV
 dipol+quadrupol energy correction           -0.009633 eV
 added-field ion interaction         -0.256738 eV  (added to PSCEN)


 Free energy of the ion-electron system (eV)
  ---------------------------------------------------
  alpha Z        PSCENC =         1.06122672
  Ewald energy   TEWEN  =      3901.13736820
  -Hartree energ DENC   =     -5603.16154360
  -exchange      EXHF   =       113.15169525
  -V(xc)+E(xc)   XCENC  =       146.31621815
  PAW double counting   =      4249.34331806    -4260.28953739
  entropy T*S    EENTRO =        -0.00000000
  eigenvalues    EBANDS =      -733.38066863
  atomic energy  EATOM  =      2059.26955741
  ---------------------------------------------------
  free energy    TOTEN  =      -126.55236583 eV

  energy without entropy =     -126.55236583  energy(sigma->0) =     -126.55236583
  exchange ACFDT corr.  =        -0.00000000  see jH, gK, PRB 81, 115126


--------------------------------------------------------------------------------------------------------




--------------------------------------- Iteration      1(  15)  ---------------------------------------


    POTLOK:  cpu time      0.8551: real time      0.8583
    SETDIJ:  cpu time      0.0026: real time      0.0026
    TRIAL :  cpu time      4.9855: real time      5.0134
    CORREC:  cpu time      0.0002: real time      0.0002
    CHARGE:  cpu time      0.1072: real time      0.1080
    --------------------------------------------
      LOOP:  cpu time      5.9508: real time      5.9827

 eigenvalue-minimisations  :     0
 total energy-change (2. order) :-0.5450479E-01  (-0.3853704E-01)
 number of electron      50.0000008 magnetization 
 augmentation part        1.9752450 magnetization 

 DIPCOR: dipole corrections for dipol
 direction  1 min pos     1, direction  2 min pos     1, direction  3 min pos     1,
 dipolmoment           1.224852      0.959792     -0.277568 electrons x Angstroem
 Tr[quadrupol]        29.924420

 energy correction for charged system         0.000000 eV
 dipol+quadrupol energy correction           -0.009419 eV
 added-field ion interaction         -0.253899 eV  (added to PSCEN)


 Free energy of the ion-electron system (eV)
  ---------------------------------------------------
  alpha Z        PSCENC =         1.06427923
  Ewald energy   TEWEN  =      3901.13736820
  -Hartree energ DENC   =     -5603.86890449
  -exchange      EXHF   =       113.17130335
  -V(xc)+E(xc)   XCENC  =       146.33784957
  PAW double counting   =      4254.22416184    -4265.17387078
  entropy T*S    EENTRO =        -0.00000000
  eigenvalues    EBANDS =      -732.76861494
  atomic energy  EATOM  =      2059.26955741
  ---------------------------------------------------
  free energy    TOTEN  =      -126.60687062 eV

  energy without entropy =     -126.60687062  energy(sigma->0) =     -126.60687062
  exchange ACFDT corr.  =        -0.00000000  see jH, gK, PRB 81, 115126


--------------------------------------------------------------------------------------------------------




--------------------------------------- Iteration      1(  16)  ---------------------------------------


    POTLOK:  cpu time      0.8613: real time      0.8645
    SETDIJ:  cpu time      0.0032: real time      0.0032
    TRIAL :  cpu time      5.0088: real time      5.0376
    CORREC:  cpu time      0.0002: real time      0.0002
    CHARGE:  cpu time      0.1073: real time      0.1081
    --------------------------------------------
      LOOP:  cpu time      5.9811: real time      6.0138

 eigenvalue-minimisations  :     0
 total energy-change (2. order) :-0.2851275E-01  (-0.2029576E-01)
 number of electron      50.0000008 magnetization 
 augmentation part        1.9746344 magnetization 

 DIPCOR: dipole corrections for dipol
 direction  1 min pos     1, direction  2 min pos     1, direction  3 min pos     1,
 dipolmoment           1.213940      0.953241     -0.278533 electrons x Angstroem
 Tr[quadrupol]        29.898816

 energy correction for charged system         0.000000 eV
 dipol+quadrupol energy correction           -0.009273 eV
 added-field ion interaction         -0.251835 eV  (added to PSCEN)


 Free energy of the ion-electron system (eV)
  ---------------------------------------------------
  alpha Z        PSCENC =         1.06648900
  Ewald energy   TEWEN  =      3901.13736820
  -Hartree energ DENC   =     -5603.83886856
  -exchange      EXHF   =       113.17132321
  -V(xc)+E(xc)   XCENC  =       146.33485883
  PAW double counting   =      4258.22771844    -4269.17783228
  entropy T*S    EENTRO =        -0.00000000
  eigenvalues    EBANDS =      -732.82599762
  atomic energy  EATOM  =      2059.26955741
  ---------------------------------------------------
  free energy    TOTEN  =      -126.63538337 eV

  energy without entropy =     -126.63538337  energy(sigma->0) =     -126.63538337
  exchange ACFDT corr.  =        -0.00000000  see jH, gK, PRB 81, 115126


--------------------------------------------------------------------------------------------------------




--------------------------------------- Iteration      1(  17)  ---------------------------------------


    POTLOK:  cpu time      0.8543: real time      0.8576
    SETDIJ:  cpu time      0.0024: real time      0.0024
    TRIAL :  cpu time      4.9888: real time      5.0183
    CORREC:  cpu time      0.0003: real time      0.0003
    CHARGE:  cpu time      0.1074: real time      0.1082
    --------------------------------------------
      LOOP:  cpu time      5.9535: real time      5.9872

 eigenvalue-minimisations  :     0
 total energy-change (2. order) :-0.1586123E-01  (-0.1125595E-01)
 number of electron      50.0000008 magnetization 
 augmentation part        1.9743930 magnetization 

 DIPCOR: dipole corrections for dipol
 direction  1 min pos     1, direction  2 min pos     1, direction  3 min pos     1,
 dipolmoment           1.206675      0.949620     -0.280766 electrons x Angstroem
 Tr[quadrupol]        29.908681

 energy correction for charged system         0.000000 eV
 dipol+quadrupol energy correction           -0.009186 eV
 added-field ion interaction         -0.250532 eV  (added to PSCEN)


 Free energy of the ion-electron system (eV)
  ---------------------------------------------------
  alpha Z        PSCENC =         1.06787911
  Ewald energy   TEWEN  =      3901.13736820
  -Hartree energ DENC   =     -5603.46254752
  -exchange      EXHF   =       113.16417371
  -V(xc)+E(xc)   XCENC  =       146.32335136
  PAW double counting   =      4260.97217834    -4271.92081334
  entropy T*S    EENTRO =        -0.00000000
  eigenvalues    EBANDS =      -733.20239187
  atomic energy  EATOM  =      2059.26955741
  ---------------------------------------------------
  free energy    TOTEN  =      -126.65124460 eV

  energy without entropy =     -126.65124460  energy(sigma->0) =     -126.65124460
  exchange ACFDT corr.  =        -0.00000000  see jH, gK, PRB 81, 115126


--------------------------------------------------------------------------------------------------------




--------------------------------------- Iteration      1(  18)  ---------------------------------------


    POTLOK:  cpu time      0.8511: real time      0.8542
    SETDIJ:  cpu time      0.0067: real time      0.0067
    TRIAL :  cpu time      5.0025: real time      5.0309
    CORREC:  cpu time      0.0003: real time      0.0004
    CHARGE:  cpu time      0.1075: real time      0.1081
    --------------------------------------------
      LOOP:  cpu time      5.9682: real time      6.0005

 eigenvalue-minimisations  :     0
 total energy-change (2. order) :-0.9180282E-02  (-0.6340079E-02)
 number of electron      50.0000008 magnetization 
 augmentation part        1.9744415 magnetization 

 DIPCOR: dipole corrections for dipol
 direction  1 min pos     1, direction  2 min pos     1, direction  3 min pos     1,
 dipolmoment           1.202017      0.947340     -0.281957 electrons x Angstroem
 Tr[quadrupol]        29.917850

 energy correction for charged system         0.000000 eV
 dipol+quadrupol energy correction           -0.009130 eV
 added-field ion interaction         -0.249706 eV  (added to PSCEN)


 Free energy of the ion-electron system (eV)
  ---------------------------------------------------
  alpha Z        PSCENC =         1.06876206
  Ewald energy   TEWEN  =      3901.13736820
  -Hartree energ DENC   =     -5603.24547887
  -exchange      EXHF   =       113.16171568
  -V(xc)+E(xc)   XCENC  =       146.31878354
  PAW double counting   =      4262.92097247    -4273.86871992
  entropy T*S    EENTRO =        -0.00000000
  eigenvalues    EBANDS =      -733.42338545
  atomic energy  EATOM  =      2059.26955741
  ---------------------------------------------------
  free energy    TOTEN  =      -126.66042488 eV

  energy without entropy =     -126.66042488  energy(sigma->0) =     -126.66042488
  exchange ACFDT corr.  =        -0.00000000  see jH, gK, PRB 81, 115126


--------------------------------------------------------------------------------------------------------




--------------------------------------- Iteration      1(  19)  ---------------------------------------


    POTLOK:  cpu time      0.8533: real time      0.8567
    SETDIJ:  cpu time      0.0024: real time      0.0024
    TRIAL :  cpu time      4.9923: real time      5.0205
    CORREC:  cpu time      0.0002: real time      0.0002
    CHARGE:  cpu time      0.1072: real time      0.1081
    --------------------------------------------
      LOOP:  cpu time      5.9557: real time      5.9881

 eigenvalue-minimisations  :     0
 total energy-change (2. order) :-0.5429706E-02  (-0.3940263E-02)
 number of electron      50.0000008 magnetization 
 augmentation part        1.9745248 magnetization 

 DIPCOR: dipole corrections for dipol
 direction  1 min pos     1, direction  2 min pos     1, direction  3 min pos     1,
 dipolmoment           1.198826      0.945776     -0.281906 electrons x Angstroem
 Tr[quadrupol]        29.919491

 energy correction for charged system         0.000000 eV
 dipol+quadrupol energy correction           -0.009089 eV
 added-field ion interaction         -0.249150 eV  (added to PSCEN)


 Free energy of the ion-electron system (eV)
  ---------------------------------------------------
  alpha Z        PSCENC =         1.06935769
  Ewald energy   TEWEN  =      3901.13736820
  -Hartree energ DENC   =     -5603.20903941
  -exchange      EXHF   =       113.16261796
  -V(xc)+E(xc)   XCENC  =       146.31921883
  PAW double counting   =      4264.27883630    -4275.22657132
  entropy T*S    EENTRO =        -0.00000000
  eigenvalues    EBANDS =      -733.46720024
  atomic energy  EATOM  =      2059.26955741
  ---------------------------------------------------
  free energy    TOTEN  =      -126.66585459 eV

  energy without entropy =     -126.66585459  energy(sigma->0) =     -126.66585459
  exchange ACFDT corr.  =        -0.00000000  see jH, gK, PRB 81, 115126


--------------------------------------------------------------------------------------------------------




--------------------------------------- Iteration      1(  20)  ---------------------------------------


    POTLOK:  cpu time      0.8525: real time      0.8556
    SETDIJ:  cpu time      0.0026: real time      0.0026
    TRIAL :  cpu time      4.9966: real time      5.0249
    CORREC:  cpu time      0.0002: real time      0.0002
    CHARGE:  cpu time      0.1075: real time      0.1083
    --------------------------------------------
      LOOP:  cpu time      5.9596: real time      5.9919

 eigenvalue-minimisations  :     0
 total energy-change (2. order) :-0.3495357E-02  (-0.2576591E-02)
 number of electron      50.0000008 magnetization 
 augmentation part        1.9745687 magnetization 

 DIPCOR: dipole corrections for dipol
 direction  1 min pos     1, direction  2 min pos     1, direction  3 min pos     1,
 dipolmoment           1.196169      0.944557     -0.281505 electrons x Angstroem
 Tr[quadrupol]        29.917771

 energy correction for charged system         0.000000 eV
 dipol+quadrupol energy correction           -0.009056 eV
 added-field ion interaction         -0.248703 eV  (added to PSCEN)


 Free energy of the ion-electron system (eV)
  ---------------------------------------------------
  alpha Z        PSCENC =         1.06983806
  Ewald energy   TEWEN  =      3901.13736820
  -Hartree energ DENC   =     -5603.21289257
  -exchange      EXHF   =       113.16315172
  -V(xc)+E(xc)   XCENC  =       146.31936241
  PAW double counting   =      4265.10874484    -4276.05668782
  entropy T*S    EENTRO =        -0.00000000
  eigenvalues    EBANDS =      -733.46779220
  atomic energy  EATOM  =      2059.26955741
  ---------------------------------------------------
  free energy    TOTEN  =      -126.66934995 eV

  energy without entropy =     -126.66934995  energy(sigma->0) =     -126.66934995
  exchange ACFDT corr.  =        -0.00000000  see jH, gK, PRB 81, 115126


--------------------------------------------------------------------------------------------------------




--------------------------------------- Iteration      1(  21)  ---------------------------------------


    POTLOK:  cpu time      0.8735: real time      0.8767
    SETDIJ:  cpu time      0.0026: real time      0.0026
    TRIAL :  cpu time      4.9996: real time      5.0280
    CORREC:  cpu time      0.0002: real time      0.0002
    CHARGE:  cpu time      0.1071: real time      0.1079
    --------------------------------------------
      LOOP:  cpu time      5.9832: real time      6.0157

 eigenvalue-minimisations  :     0
 total energy-change (2. order) :-0.2331933E-02  (-0.1724799E-02)
 number of electron      50.0000008 magnetization 
 augmentation part        1.9746316 magnetization 

 DIPCOR: dipole corrections for dipol
 direction  1 min pos     1, direction  2 min pos     1, direction  3 min pos     1,
 dipolmoment           1.193956      0.943699     -0.281330 electrons x Angstroem
 Tr[quadrupol]        29.918006

 energy correction for charged system         0.000000 eV
 dipol+quadrupol energy correction           -0.009030 eV
 added-field ion interaction         -0.248350 eV  (added to PSCEN)


 Free energy of the ion-electron system (eV)
  ---------------------------------------------------
  alpha Z        PSCENC =         1.07021781
  Ewald energy   TEWEN  =      3901.13736820
  -Hartree energ DENC   =     -5603.18658255
  -exchange      EXHF   =       113.16257618
  -V(xc)+E(xc)   XCENC  =       146.31809675
  PAW double counting   =      4265.57726870    -4276.52532207
  entropy T*S    EENTRO =        -0.00000000
  eigenvalues    EBANDS =      -733.49486231
  atomic energy  EATOM  =      2059.26955741
  ---------------------------------------------------
  free energy    TOTEN  =      -126.67168188 eV

  energy without entropy =     -126.67168188  energy(sigma->0) =     -126.67168188
  exchange ACFDT corr.  =        -0.00000000  see jH, gK, PRB 81, 115126


--------------------------------------------------------------------------------------------------------




--------------------------------------- Iteration      1(  22)  ---------------------------------------


    POTLOK:  cpu time      0.8526: real time      0.8557
    SETDIJ:  cpu time      0.0023: real time      0.0023
    TRIAL :  cpu time      5.0005: real time      5.0302
    CORREC:  cpu time      0.0003: real time      0.0003
    CHARGE:  cpu time      0.1076: real time      0.1084
    --------------------------------------------
      LOOP:  cpu time      5.9636: real time      5.9972

 eigenvalue-minimisations  :     0
 total energy-change (2. order) :-0.1594867E-02  (-0.1217780E-02)
 number of electron      50.0000008 magnetization 
 augmentation part        1.9747270 magnetization 

 DIPCOR: dipole corrections for dipol
 direction  1 min pos     1, direction  2 min pos     1, direction  3 min pos     1,
 dipolmoment           1.192309      0.943262     -0.281363 electrons x Angstroem
 Tr[quadrupol]        29.919574

 energy correction for charged system         0.000000 eV
 dipol+quadrupol energy correction           -0.009012 eV
 added-field ion interaction         -0.248108 eV  (added to PSCEN)


 Free energy of the ion-electron system (eV)
  ---------------------------------------------------
  alpha Z        PSCENC =         1.07047769
  Ewald energy   TEWEN  =      3901.13736820
  -Hartree energ DENC   =     -5603.16001759
  -exchange      EXHF   =       113.16243911
  -V(xc)+E(xc)   XCENC  =       146.31748636
  PAW double counting   =      4265.89699959    -4276.84520408
  entropy T*S    EENTRO =        -0.00000000
  eigenvalues    EBANDS =      -733.52238344
  atomic energy  EATOM  =      2059.26955741
  ---------------------------------------------------
  free energy    TOTEN  =      -126.67327675 eV

  energy without entropy =     -126.67327675  energy(sigma->0) =     -126.67327675
  exchange ACFDT corr.  =        -0.00000000  see jH, gK, PRB 81, 115126


--------------------------------------------------------------------------------------------------------




--------------------------------------- Iteration      1(  23)  ---------------------------------------


    POTLOK:  cpu time      0.8525: real time      0.8559
    SETDIJ:  cpu time      0.0024: real time      0.0024
    TRIAL :  cpu time      5.0058: real time      5.0340
    CORREC:  cpu time      0.0002: real time      0.0002
    CHARGE:  cpu time      0.1073: real time      0.1082
    --------------------------------------------
      LOOP:  cpu time      5.9684: real time      6.0008

 eigenvalue-minimisations  :     0
 total energy-change (2. order) :-0.1148300E-02  (-0.8986701E-03)
 number of electron      50.0000008 magnetization 
 augmentation part        1.9748131 magnetization 

 DIPCOR: dipole corrections for dipol
 direction  1 min pos     1, direction  2 min pos     1, direction  3 min pos     1,
 dipolmoment           1.191198      0.943152     -0.281434 electrons x Angstroem
 Tr[quadrupol]        29.920500

 energy correction for charged system         0.000000 eV
 dipol+quadrupol energy correction           -0.009001 eV
 added-field ion interaction         -0.247969 eV  (added to PSCEN)


 Free energy of the ion-electron system (eV)
  ---------------------------------------------------
  alpha Z        PSCENC =         1.07062664
  Ewald energy   TEWEN  =      3901.13736820
  -Hartree energ DENC   =     -5603.15505074
  -exchange      EXHF   =       113.16305301
  -V(xc)+E(xc)   XCENC  =       146.31796536
  PAW double counting   =      4266.15257466    -4277.10103524
  entropy T*S    EENTRO =        -0.00000000
  eigenvalues    EBANDS =      -733.52948434
  atomic energy  EATOM  =      2059.26955741
  ---------------------------------------------------
  free energy    TOTEN  =      -126.67442505 eV

  energy without entropy =     -126.67442505  energy(sigma->0) =     -126.67442505
  exchange ACFDT corr.  =        -0.00000000  see jH, gK, PRB 81, 115126


--------------------------------------------------------------------------------------------------------




--------------------------------------- Iteration      1(  24)  ---------------------------------------


    POTLOK:  cpu time      0.8548: real time      0.8579
    SETDIJ:  cpu time      0.0023: real time      0.0023
    TRIAL :  cpu time      5.0194: real time      5.0479
    CORREC:  cpu time      0.0003: real time      0.0003
    CHARGE:  cpu time      0.1074: real time      0.1082
    --------------------------------------------
      LOOP:  cpu time      5.9846: real time      6.0297

 eigenvalue-minimisations  :     0
 total energy-change (2. order) :-0.8552785E-03  (-0.6815822E-03)
 number of electron      50.0000008 magnetization 
 augmentation part        1.9748755 magnetization 

 DIPCOR: dipole corrections for dipol
 direction  1 min pos     1, direction  2 min pos     1, direction  3 min pos     1,
 dipolmoment           1.190370      0.943190     -0.281475 electrons x Angstroem
 Tr[quadrupol]        29.920564

 energy correction for charged system         0.000000 eV
 dipol+quadrupol energy correction           -0.008994 eV
 added-field ion interaction         -0.247879 eV  (added to PSCEN)


 Free energy of the ion-electron system (eV)
  ---------------------------------------------------
  alpha Z        PSCENC =         1.07072444
  Ewald energy   TEWEN  =      3901.13736820
  -Hartree energ DENC   =     -5603.15813901
  -exchange      EXHF   =       113.16367514
  -V(xc)+E(xc)   XCENC  =       146.31843479
  PAW double counting   =      4266.35323928    -4277.30195863
  entropy T*S    EENTRO =        -0.00000000
  eigenvalues    EBANDS =      -733.52818194
  atomic energy  EATOM  =      2059.26955741
  ---------------------------------------------------
  free energy    TOTEN  =      -126.67528033 eV

  energy without entropy =     -126.67528033  energy(sigma->0) =     -126.67528033
  exchange ACFDT corr.  =        -0.00000000  see jH, gK, PRB 81, 115126


--------------------------------------------------------------------------------------------------------




--------------------------------------- Iteration      1(  25)  ---------------------------------------


    POTLOK:  cpu time      0.8523: real time      0.8555
    SETDIJ:  cpu time      0.0025: real time      0.0025
    TRIAL :  cpu time      4.9924: real time      5.0211
    CORREC:  cpu time      0.0002: real time      0.0003
    CHARGE:  cpu time      0.1075: real time      0.1081
    --------------------------------------------
      LOOP:  cpu time      5.9551: real time      5.9876

 eigenvalue-minimisations  :     0
 total energy-change (2. order) :-0.6542576E-03  (-0.5250300E-03)
 number of electron      50.0000008 magnetization 
 augmentation part        1.9749304 magnetization 

 DIPCOR: dipole corrections for dipol
 direction  1 min pos     1, direction  2 min pos     1, direction  3 min pos     1,
 dipolmoment           1.189710      0.943278     -0.281526 electrons x Angstroem
 Tr[quadrupol]        29.920002

 energy correction for charged system         0.000000 eV
 dipol+quadrupol energy correction           -0.008989 eV
 added-field ion interaction         -0.247814 eV  (added to PSCEN)


 Free energy of the ion-electron system (eV)
  ---------------------------------------------------
  alpha Z        PSCENC =         1.07079469
  Ewald energy   TEWEN  =      3901.13736820
  -Hartree energ DENC   =     -5603.16223583
  -exchange      EXHF   =       113.16406965
  -V(xc)+E(xc)   XCENC  =       146.31866652
  PAW double counting   =      4266.50189276    -4277.45082480
  entropy T*S    EENTRO =        -0.00000000
  eigenvalues    EBANDS =      -733.52522316
  atomic energy  EATOM  =      2059.26955741
  ---------------------------------------------------
  free energy    TOTEN  =      -126.67593458 eV

  energy without entropy =     -126.67593458  energy(sigma->0) =     -126.67593458
  exchange ACFDT corr.  =        -0.00000000  see jH, gK, PRB 81, 115126


--------------------------------------------------------------------------------------------------------




--------------------------------------- Iteration      1(  26)  ---------------------------------------


    POTLOK:  cpu time      0.8596: real time      0.8628
    SETDIJ:  cpu time      0.0023: real time      0.0024
    TRIAL :  cpu time      5.0165: real time      5.0448
    CORREC:  cpu time      0.0003: real time      0.0003
    CHARGE:  cpu time      0.1075: real time      0.1082
    --------------------------------------------
      LOOP:  cpu time      5.9865: real time      6.0187

 eigenvalue-minimisations  :     0
 total energy-change (2. order) :-0.5016447E-03  (-0.4008010E-03)
 number of electron      50.0000008 magnetization 
 augmentation part        1.9749809 magnetization 

 DIPCOR: dipole corrections for dipol
 direction  1 min pos     1, direction  2 min pos     1, direction  3 min pos     1,
 dipolmoment           1.189210      0.943399     -0.281605 electrons x Angstroem
 Tr[quadrupol]        29.919455

 energy correction for charged system         0.000000 eV
 dipol+quadrupol energy correction           -0.008985 eV
 added-field ion interaction         -0.247770 eV  (added to PSCEN)


 Free energy of the ion-electron system (eV)
  ---------------------------------------------------
  alpha Z        PSCENC =         1.07084163
  Ewald energy   TEWEN  =      3901.13736820
  -Hartree energ DENC   =     -5603.16946355
  -exchange      EXHF   =       113.16445803
  -V(xc)+E(xc)   XCENC  =       146.31894814
  PAW double counting   =      4266.61640030    -4277.56552903
  entropy T*S    EENTRO =        -0.00000000
  eigenvalues    EBANDS =      -733.51901735
  atomic energy  EATOM  =      2059.26955741
  ---------------------------------------------------
  free energy    TOTEN  =      -126.67643623 eV

  energy without entropy =     -126.67643623  energy(sigma->0) =     -126.67643623
  exchange ACFDT corr.  =        -0.00000000  see jH, gK, PRB 81, 115126


--------------------------------------------------------------------------------------------------------




--------------------------------------- Iteration      1(  27)  ---------------------------------------


    POTLOK:  cpu time      0.8530: real time      0.8562
    SETDIJ:  cpu time      0.0022: real time      0.0022
    TRIAL :  cpu time      5.0008: real time      5.0299
    CORREC:  cpu time      0.0002: real time      0.0002
    CHARGE:  cpu time      0.1073: real time      0.1081
    --------------------------------------------
      LOOP:  cpu time      5.9638: real time      5.9968

 eigenvalue-minimisations  :     0
 total energy-change (2. order) :-0.3815421E-03  (-0.3036535E-03)
 number of electron      50.0000008 magnetization 
 augmentation part        1.9750232 magnetization 

 DIPCOR: dipole corrections for dipol
 direction  1 min pos     1, direction  2 min pos     1, direction  3 min pos     1,
 dipolmoment           1.188850      0.943507     -0.281703 electrons x Angstroem
 Tr[quadrupol]        29.919289

 energy correction for charged system         0.000000 eV
 dipol+quadrupol energy correction           -0.008983 eV
 added-field ion interaction         -0.247743 eV  (added to PSCEN)


 Free energy of the ion-electron system (eV)
  ---------------------------------------------------
  alpha Z        PSCENC =         1.07087146
  Ewald energy   TEWEN  =      3901.13736820
  -Hartree energ DENC   =     -5603.17637569
  -exchange      EXHF   =       113.16485568
  -V(xc)+E(xc)   XCENC  =       146.31920448
  PAW double counting   =      4266.70851520    -4277.65782443
  entropy T*S    EENTRO =        -0.00000000
  eigenvalues    EBANDS =      -733.51299008
  atomic energy  EATOM  =      2059.26955741
  ---------------------------------------------------
  free energy    TOTEN  =      -126.67681777 eV

  energy without entropy =     -126.67681777  energy(sigma->0) =     -126.67681777
  exchange ACFDT corr.  =        -0.00000000  see jH, gK, PRB 81, 115126


--------------------------------------------------------------------------------------------------------




--------------------------------------- Iteration      1(  28)  ---------------------------------------


    POTLOK:  cpu time      0.8536: real time      0.8568
    SETDIJ:  cpu time      0.0021: real time      0.0021
    TRIAL :  cpu time      4.9918: real time      5.0252
    CORREC:  cpu time      0.0002: real time      0.0002
    CHARGE:  cpu time      0.1077: real time      0.1086
    --------------------------------------------
      LOOP:  cpu time      5.9557: real time      5.9932

 eigenvalue-minimisations  :     0
 total energy-change (2. order) :-0.2863102E-03  (-0.2272781E-03)
 number of electron      50.0000008 magnetization 
 augmentation part        1.9750525 magnetization 

 DIPCOR: dipole corrections for dipol
 direction  1 min pos     1, direction  2 min pos     1, direction  3 min pos     1,
 dipolmoment           1.188564      0.943611     -0.281761 electrons x Angstroem
 Tr[quadrupol]        29.919338

 energy correction for charged system         0.000000 eV
 dipol+quadrupol energy correction           -0.008981 eV
 added-field ion interaction         -0.247721 eV  (added to PSCEN)


 Free energy of the ion-electron system (eV)
  ---------------------------------------------------
  alpha Z        PSCENC =         1.07089465
  Ewald energy   TEWEN  =      3901.13736820
  -Hartree energ DENC   =     -5603.18202669
  -exchange      EXHF   =       113.16518533
  -V(xc)+E(xc)   XCENC  =       146.31945412
  PAW double counting   =      4266.78327938    -4277.73274036
  entropy T*S    EENTRO =        -0.00000000
  eigenvalues    EBANDS =      -733.50807612
  atomic energy  EATOM  =      2059.26955741
  ---------------------------------------------------
  free energy    TOTEN  =      -126.67710408 eV

  energy without entropy =     -126.67710408  energy(sigma->0) =     -126.67710408
  exchange ACFDT corr.  =        -0.00000000  see jH, gK, PRB 81, 115126


--------------------------------------------------------------------------------------------------------




--------------------------------------- Iteration      1(  29)  ---------------------------------------


    POTLOK:  cpu time      0.8497: real time      0.8534
    SETDIJ:  cpu time      0.0045: real time      0.0046
    TRIAL :  cpu time      4.9799: real time      5.0173
    CORREC:  cpu time      0.0001: real time      0.0001
    CHARGE:  cpu time      0.1069: real time      0.1080
    --------------------------------------------
      LOOP:  cpu time      5.9414: real time      5.9835

 eigenvalue-minimisations  :     0
 total energy-change (2. order) :-0.2136712E-03  (-0.1716589E-03)
 number of electron      50.0000008 magnetization 
 augmentation part        1.9750792 magnetization 

 DIPCOR: dipole corrections for dipol
 direction  1 min pos     1, direction  2 min pos     1, direction  3 min pos     1,
 dipolmoment           1.188344      0.943694     -0.281806 electrons x Angstroem
 Tr[quadrupol]        29.919364

 energy correction for charged system         0.000000 eV
 dipol+quadrupol energy correction           -0.008980 eV
 added-field ion interaction         -0.247709 eV  (added to PSCEN)


 Free energy of the ion-electron system (eV)
  ---------------------------------------------------
  alpha Z        PSCENC =         1.07090819
  Ewald energy   TEWEN  =      3901.13736820
  -Hartree energ DENC   =     -5603.18490392
  -exchange      EXHF   =       113.16539028
  -V(xc)+E(xc)   XCENC  =       146.31956271
  PAW double counting   =      4266.84414627    -4277.79371746
  entropy T*S    EENTRO =        -0.00000000
  eigenvalues    EBANDS =      -733.50562943
  atomic energy  EATOM  =      2059.26955741
  ---------------------------------------------------
  free energy    TOTEN  =      -126.67731775 eV

  energy without entropy =     -126.67731775  energy(sigma->0) =     -126.67731775
  exchange ACFDT corr.  =        -0.00000000  see jH, gK, PRB 81, 115126


--------------------------------------------------------------------------------------------------------




--------------------------------------- Iteration      1(  30)  ---------------------------------------


    POTLOK:  cpu time      0.8520: real time      0.8562
    SETDIJ:  cpu time      0.0023: real time      0.0023
    TRIAL :  cpu time      4.9683: real time      5.0061
    CORREC:  cpu time      0.0002: real time      0.0002
    CHARGE:  cpu time      0.1072: real time      0.1080
    --------------------------------------------
      LOOP:  cpu time      5.9301: real time      5.9730

 eigenvalue-minimisations  :     0
 total energy-change (2. order) :-0.1593620E-03  (-0.1311125E-03)
 number of electron      50.0000008 magnetization 
 augmentation part        1.9750980 magnetization 

 DIPCOR: dipole corrections for dipol
 direction  1 min pos     1, direction  2 min pos     1, direction  3 min pos     1,
 dipolmoment           1.188174      0.943747     -0.281835 electrons x Angstroem
 Tr[quadrupol]        29.919436

 energy correction for charged system         0.000000 eV
 dipol+quadrupol energy correction           -0.008979 eV
 added-field ion interaction         -0.247693 eV  (added to PSCEN)


 Free energy of the ion-electron system (eV)
  ---------------------------------------------------
  alpha Z        PSCENC =         1.07092528
  Ewald energy   TEWEN  =      3901.13736820
  -Hartree energ DENC   =     -5603.18838899
  -exchange      EXHF   =       113.16558809
  -V(xc)+E(xc)   XCENC  =       146.31965596
  PAW double counting   =      4266.89563958    -4277.84530913
  entropy T*S    EENTRO =        -0.00000000
  eigenvalues    EBANDS =      -733.50251352
  atomic energy  EATOM  =      2059.26955741
  ---------------------------------------------------
  free energy    TOTEN  =      -126.67747711 eV

  energy without entropy =     -126.67747711  energy(sigma->0) =     -126.67747711
  exchange ACFDT corr.  =        -0.00000000  see jH, gK, PRB 81, 115126


--------------------------------------------------------------------------------------------------------




--------------------------------------- Iteration      1(  31)  ---------------------------------------


    POTLOK:  cpu time      0.8860: real time      0.8896
    SETDIJ:  cpu time      0.0026: real time      0.0026
    TRIAL :  cpu time      4.9813: real time      5.0120
    CORREC:  cpu time      0.0001: real time      0.0001
    CHARGE:  cpu time      0.1072: real time      0.1080
    --------------------------------------------
      LOOP:  cpu time      5.9775: real time      6.0126

 eigenvalue-minimisations  :     0
 total energy-change (2. order) :-0.1228073E-03  (-0.1025424E-03)
 number of electron      50.0000008 magnetization 
 augmentation part        1.9751154 magnetization 

 DIPCOR: dipole corrections for dipol
 direction  1 min pos     1, direction  2 min pos     1, direction  3 min pos     1,
 dipolmoment           1.188053      0.943819     -0.281856 electrons x Angstroem
 Tr[quadrupol]        29.919487

 energy correction for charged system         0.000000 eV
 dipol+quadrupol energy correction           -0.008978 eV
 added-field ion interaction         -0.247689 eV  (added to PSCEN)


 Free energy of the ion-electron system (eV)
  ---------------------------------------------------
  alpha Z        PSCENC =         1.07092965
  Ewald energy   TEWEN  =      3901.13736820
  -Hartree energ DENC   =     -5603.19069605
  -exchange      EXHF   =       113.16572634
  -V(xc)+E(xc)   XCENC  =       146.31976544
  PAW double counting   =      4266.93669002    -4277.88643515
  entropy T*S    EENTRO =        -0.00000000
  eigenvalues    EBANDS =      -733.50050578
  atomic energy  EATOM  =      2059.26955741
  ---------------------------------------------------
  free energy    TOTEN  =      -126.67759992 eV

  energy without entropy =     -126.67759992  energy(sigma->0) =     -126.67759992
  exchange ACFDT corr.  =        -0.00000000  see jH, gK, PRB 81, 115126


--------------------------------------------------------------------------------------------------------




--------------------------------------- Iteration      1(  32)  ---------------------------------------


    POTLOK:  cpu time      0.8490: real time      0.8521
    SETDIJ:  cpu time      0.0066: real time      0.0067
    TRIAL :  cpu time      4.9772: real time      5.0067
    CORREC:  cpu time      0.0003: real time      0.0004
    CHARGE:  cpu time      0.1075: real time      0.1081
    --------------------------------------------
      LOOP:  cpu time      5.9409: real time      5.9742

 eigenvalue-minimisations  :     0
 total energy-change (2. order) :-0.9544874E-04  (-0.8199435E-04)
 number of electron      50.0000008 magnetization 
 augmentation part        1.9751264 magnetization 

 DIPCOR: dipole corrections for dipol
 direction  1 min pos     1, direction  2 min pos     1, direction  3 min pos     1,
 dipolmoment           1.187965      0.943866     -0.281862 electrons x Angstroem
 Tr[quadrupol]        29.919444

 energy correction for charged system         0.000000 eV
 dipol+quadrupol energy correction           -0.008978 eV
 added-field ion interaction         -0.247686 eV  (added to PSCEN)


 Free energy of the ion-electron system (eV)
  ---------------------------------------------------
  alpha Z        PSCENC =         1.07093370
  Ewald energy   TEWEN  =      3901.13736820
  -Hartree energ DENC   =     -5603.19309116
  -exchange      EXHF   =       113.16585048
  -V(xc)+E(xc)   XCENC  =       146.31982030
  PAW double counting   =      4266.97029754    -4277.92011156
  entropy T*S    EENTRO =        -0.00000000
  eigenvalues    EBANDS =      -733.49832027
  atomic energy  EATOM  =      2059.26955741
  ---------------------------------------------------
  free energy    TOTEN  =      -126.67769537 eV

  energy without entropy =     -126.67769537  energy(sigma->0) =     -126.67769537
  exchange ACFDT corr.  =        -0.00000000  see jH, gK, PRB 81, 115126


--------------------------------------------------------------------------------------------------------




--------------------------------------- Iteration      1(  33)  ---------------------------------------


    POTLOK:  cpu time      0.8530: real time      0.8563
    SETDIJ:  cpu time      0.0023: real time      0.0023
    TRIAL :  cpu time      4.9874: real time      5.0154
    CORREC:  cpu time      0.0002: real time      0.0002
    CHARGE:  cpu time      0.1071: real time      0.1079
    --------------------------------------------
      LOOP:  cpu time      5.9501: real time      5.9822

 eigenvalue-minimisations  :     0
 total energy-change (2. order) :-0.7578107E-04  (-0.6989044E-04)
 number of electron      50.0000008 magnetization 
 augmentation part        1.9751397 magnetization 

 DIPCOR: dipole corrections for dipol
 direction  1 min pos     1, direction  2 min pos     1, direction  3 min pos     1,
 dipolmoment           1.187863      0.943926     -0.281898 electrons x Angstroem
 Tr[quadrupol]        29.919638

 energy correction for charged system         0.000000 eV
 dipol+quadrupol energy correction           -0.008978 eV
 added-field ion interaction         -0.247680 eV  (added to PSCEN)


 Free energy of the ion-electron system (eV)
  ---------------------------------------------------
  alpha Z        PSCENC =         1.07093967
  Ewald energy   TEWEN  =      3901.13736820
  -Hartree energ DENC   =     -5603.19351169
  -exchange      EXHF   =       113.16591584
  -V(xc)+E(xc)   XCENC  =       146.31981437
  PAW double counting   =      4266.99502465    -4277.94488989
  entropy T*S    EENTRO =        -0.00000000
  eigenvalues    EBANDS =      -733.49798970
  atomic energy  EATOM  =      2059.26955741
  ---------------------------------------------------
  free energy    TOTEN  =      -126.67777115 eV

  energy without entropy =     -126.67777115  energy(sigma->0) =     -126.67777115
  exchange ACFDT corr.  =        -0.00000000  see jH, gK, PRB 81, 115126


--------------------------------------------------------------------------------------------------------




--------------------------------------- Iteration      1(  34)  ---------------------------------------


    POTLOK:  cpu time      0.8520: real time      0.8551
    SETDIJ:  cpu time      0.0026: real time      0.0026
    TRIAL :  cpu time      4.9884: real time      5.0169
    CORREC:  cpu time      0.0003: real time      0.0003
    CHARGE:  cpu time      0.1072: real time      0.1080
    --------------------------------------------
      LOOP:  cpu time      5.9507: real time      5.9832

 eigenvalue-minimisations  :     0
 total energy-change (2. order) :-0.6443238E-04  (-0.5967544E-04)
 number of electron      50.0000008 magnetization 
 augmentation part        1.9751451 magnetization 

 DIPCOR: dipole corrections for dipol
 direction  1 min pos     1, direction  2 min pos     1, direction  3 min pos     1,
 dipolmoment           1.187797      0.943963     -0.281877 electrons x Angstroem
 Tr[quadrupol]        29.919424

 energy correction for charged system         0.000000 eV
 dipol+quadrupol energy correction           -0.008977 eV
 added-field ion interaction         -0.247677 eV  (added to PSCEN)


 Free energy of the ion-electron system (eV)
  ---------------------------------------------------
  alpha Z        PSCENC =         1.07094345
  Ewald energy   TEWEN  =      3901.13736820
  -Hartree energ DENC   =     -5603.19747584
  -exchange      EXHF   =       113.16605637
  -V(xc)+E(xc)   XCENC  =       146.31994287
  PAW double counting   =      4267.02020755    -4277.97013015
  entropy T*S    EENTRO =        -0.00000000
  eigenvalues    EBANDS =      -733.49430544
  atomic energy  EATOM  =      2059.26955741
  ---------------------------------------------------
  free energy    TOTEN  =      -126.67783558 eV

  energy without entropy =     -126.67783558  energy(sigma->0) =     -126.67783558
  exchange ACFDT corr.  =        -0.00000000  see jH, gK, PRB 81, 115126


--------------------------------------------------------------------------------------------------------




--------------------------------------- Iteration      1(  35)  ---------------------------------------


    POTLOK:  cpu time      0.8529: real time      0.8562
    SETDIJ:  cpu time      0.0023: real time      0.0023
    TRIAL :  cpu time      4.9759: real time      5.0036
    CORREC:  cpu time      0.0002: real time      0.0002
    CHARGE:  cpu time      0.1071: real time      0.1079
    --------------------------------------------
      LOOP:  cpu time      5.9498: real time      5.9834

 eigenvalue-minimisations  :     0
 total energy-change (2. order) :-0.5377102E-04  (-0.5186804E-04)
 number of electron      50.0000008 magnetization 
 augmentation part        1.9751531 magnetization 

 DIPCOR: dipole corrections for dipol
 direction  1 min pos     1, direction  2 min pos     1, direction  3 min pos     1,
 dipolmoment           1.187705      0.944006     -0.281912 electrons x Angstroem
 Tr[quadrupol]        29.919616

 energy correction for charged system         0.000000 eV
 dipol+quadrupol energy correction           -0.008977 eV
 added-field ion interaction         -0.247673 eV  (added to PSCEN)


 Free energy of the ion-electron system (eV)
  ---------------------------------------------------
  alpha Z        PSCENC =         1.07094755
  Ewald energy   TEWEN  =      3901.13736820
  -Hartree energ DENC   =     -5603.19727174
  -exchange      EXHF   =       113.16608057
  -V(xc)+E(xc)   XCENC  =       146.31989193
  PAW double counting   =      4267.03763921    -4277.98759564
  entropy T*S    EENTRO =        -0.00000000
  eigenvalues    EBANDS =      -733.49450685
  atomic energy  EATOM  =      2059.26955741
  ---------------------------------------------------
  free energy    TOTEN  =      -126.67788936 eV

  energy without entropy =     -126.67788936  energy(sigma->0) =     -126.67788936
  exchange ACFDT corr.  =        -0.00000000  see jH, gK, PRB 81, 115126


--------------------------------------------------------------------------------------------------------




--------------------------------------- Iteration      1(  36)  ---------------------------------------


    POTLOK:  cpu time      0.8559: real time      0.8590
    SETDIJ:  cpu time      0.0022: real time      0.0022
    TRIAL :  cpu time      4.9927: real time      5.0212
    CORREC:  cpu time      0.0002: real time      0.0002
    CHARGE:  cpu time      0.1066: real time      0.1074
    --------------------------------------------
      LOOP:  cpu time      5.9580: real time      5.9903

 eigenvalue-minimisations  :     0
 total energy-change (2. order) :-0.4705947E-04  (-0.4476022E-04)
 number of electron      50.0000008 magnetization 
 augmentation part        1.9751545 magnetization 

 DIPCOR: dipole corrections for dipol
 direction  1 min pos     1, direction  2 min pos     1, direction  3 min pos     1,
 dipolmoment           1.187644      0.944036     -0.281896 electrons x Angstroem
 Tr[quadrupol]        29.919453

 energy correction for charged system         0.000000 eV
 dipol+quadrupol energy correction           -0.008976 eV
 added-field ion interaction         -0.247668 eV  (added to PSCEN)


 Free energy of the ion-electron system (eV)
  ---------------------------------------------------
  alpha Z        PSCENC =         1.07095256
  Ewald energy   TEWEN  =      3901.13736820
  -Hartree energ DENC   =     -5603.20065894
  -exchange      EXHF   =       113.16619085
  -V(xc)+E(xc)   XCENC  =       146.32001450
  PAW double counting   =      4267.05643480    -4278.00643236
  entropy T*S    EENTRO =        -0.00000000
  eigenvalues    EBANDS =      -733.49136344
  atomic energy  EATOM  =      2059.26955741
  ---------------------------------------------------
  free energy    TOTEN  =      -126.67793641 eV

  energy without entropy =     -126.67793641  energy(sigma->0) =     -126.67793641
  exchange ACFDT corr.  =        -0.00000000  see jH, gK, PRB 81, 115126


--------------------------------------------------------------------------------------------------------




--------------------------------------- Iteration      1(  37)  ---------------------------------------


    POTLOK:  cpu time      0.8526: real time      0.8558
    SETDIJ:  cpu time      0.0026: real time      0.0026
    TRIAL :  cpu time      4.9813: real time      5.0097
    CORREC:  cpu time      0.0002: real time      0.0002
    CHARGE:  cpu time      0.1072: real time      0.1079
    --------------------------------------------
      LOOP:  cpu time      5.9446: real time      5.9770

 eigenvalue-minimisations  :     0
 total energy-change (2. order) :-0.4077738E-04  (-0.3901828E-04)
 number of electron      50.0000008 magnetization 
 augmentation part        1.9751595 magnetization 

 DIPCOR: dipole corrections for dipol
 direction  1 min pos     1, direction  2 min pos     1, direction  3 min pos     1,
 dipolmoment           1.187558      0.944069     -0.281934 electrons x Angstroem
 Tr[quadrupol]        29.919642

 energy correction for charged system         0.000000 eV
 dipol+quadrupol energy correction           -0.008976 eV
 added-field ion interaction         -0.247663 eV  (added to PSCEN)


 Free energy of the ion-electron system (eV)
  ---------------------------------------------------
  alpha Z        PSCENC =         1.07095850
  Ewald energy   TEWEN  =      3901.13736820
  -Hartree energ DENC   =     -5603.19974226
  -exchange      EXHF   =       113.16619445
  -V(xc)+E(xc)   XCENC  =       146.31990655
  PAW double counting   =      4267.06850400    -4278.01852322
  entropy T*S    EENTRO =        -0.00000000
  eigenvalues    EBANDS =      -733.49220082
  atomic energy  EATOM  =      2059.26955741
  ---------------------------------------------------
  free energy    TOTEN  =      -126.67797719 eV

  energy without entropy =     -126.67797719  energy(sigma->0) =     -126.67797719
  exchange ACFDT corr.  =        -0.00000000  see jH, gK, PRB 81, 115126


--------------------------------------------------------------------------------------------------------




--------------------------------------- Iteration      1(  38)  ---------------------------------------


    POTLOK:  cpu time      0.8533: real time      0.8565
    SETDIJ:  cpu time      0.0024: real time      0.0024
    TRIAL :  cpu time      4.9747: real time      5.0025
    CORREC:  cpu time      0.0002: real time      0.0002
    CHARGE:  cpu time      0.1070: real time      0.1079
    --------------------------------------------
      LOOP:  cpu time      5.9379: real time      5.9698

 eigenvalue-minimisations  :     0
 total energy-change (2. order) :-0.3480794E-04  (-0.3343742E-04)
 number of electron      50.0000008 magnetization 
 augmentation part        1.9751586 magnetization 

 DIPCOR: dipole corrections for dipol
 direction  1 min pos     1, direction  2 min pos     1, direction  3 min pos     1,
 dipolmoment           1.187515      0.944090     -0.281907 electrons x Angstroem
 Tr[quadrupol]        29.919410

 energy correction for charged system         0.000000 eV
 dipol+quadrupol energy correction           -0.008976 eV
 added-field ion interaction         -0.247662 eV  (added to PSCEN)


 Free energy of the ion-electron system (eV)
  ---------------------------------------------------
  alpha Z        PSCENC =         1.07095992
  Ewald energy   TEWEN  =      3901.13736820
  -Hartree energ DENC   =     -5603.20362271
  -exchange      EXHF   =       113.16629910
  -V(xc)+E(xc)   XCENC  =       146.32006882
  PAW double counting   =      4267.08333374    -4278.03338379
  entropy T*S    EENTRO =        -0.00000000
  eigenvalues    EBANDS =      -733.48859268
  atomic energy  EATOM  =      2059.26955741
  ---------------------------------------------------
  free energy    TOTEN  =      -126.67801200 eV

  energy without entropy =     -126.67801200  energy(sigma->0) =     -126.67801200
  exchange ACFDT corr.  =        -0.00000000  see jH, gK, PRB 81, 115126


--------------------------------------------------------------------------------------------------------




--------------------------------------- Iteration      1(  39)  ---------------------------------------


    POTLOK:  cpu time      0.8531: real time      0.8562
    SETDIJ:  cpu time      0.0025: real time      0.0025
    TRIAL :  cpu time      4.9976: real time      5.0259
    CORREC:  cpu time      0.0001: real time      0.0001
    CHARGE:  cpu time      0.1072: real time      0.1082
    --------------------------------------------
      LOOP:  cpu time      5.9608: real time      5.9932

 eigenvalue-minimisations  :     0
 total energy-change (2. order) :-0.2941158E-04  (-0.2892672E-04)
 number of electron      50.0000008 magnetization 
 augmentation part        1.9751613 magnetization 

 DIPCOR: dipole corrections for dipol
 direction  1 min pos     1, direction  2 min pos     1, direction  3 min pos     1,
 dipolmoment           1.187425      0.944116     -0.281940 electrons x Angstroem
 Tr[quadrupol]        29.919627

 energy correction for charged system         0.000000 eV
 dipol+quadrupol energy correction           -0.008975 eV
 added-field ion interaction         -0.247654 eV  (added to PSCEN)


 Free energy of the ion-electron system (eV)
  ---------------------------------------------------
  alpha Z        PSCENC =         1.07096790
  Ewald energy   TEWEN  =      3901.13736820
  -Hartree energ DENC   =     -5603.20223306
  -exchange      EXHF   =       113.16629309
  -V(xc)+E(xc)   XCENC  =       146.31994185
  PAW double counting   =      4267.09181079    -4278.04187291
  entropy T*S    EENTRO =        -0.00000000
  eigenvalues    EBANDS =      -733.48987467
  atomic energy  EATOM  =      2059.26955741
  ---------------------------------------------------
  free energy    TOTEN  =      -126.67804141 eV

  energy without entropy =     -126.67804141  energy(sigma->0) =     -126.67804141
  exchange ACFDT corr.  =        -0.00000000  see jH, gK, PRB 81, 115126


--------------------------------------------------------------------------------------------------------




--------------------------------------- Iteration      1(  40)  ---------------------------------------


    POTLOK:  cpu time      0.8543: real time      0.8574
    SETDIJ:  cpu time      0.0022: real time      0.0022
    TRIAL :  cpu time      4.9958: real time      5.0240
    CORREC:  cpu time      0.0001: real time      0.0001
    CHARGE:  cpu time      0.1074: real time      0.1081
    --------------------------------------------
      LOOP:  cpu time      5.9600: real time      5.9919

 eigenvalue-minimisations  :     0
 total energy-change (2. order) :-0.2504085E-04  (-0.2445492E-04)
 number of electron      50.0000008 magnetization 
 augmentation part        1.9751586 magnetization 

 DIPCOR: dipole corrections for dipol
 direction  1 min pos     1, direction  2 min pos     1, direction  3 min pos     1,
 dipolmoment           1.187406      0.944128     -0.281909 electrons x Angstroem
 Tr[quadrupol]        29.919423

 energy correction for charged system         0.000000 eV
 dipol+quadrupol energy correction           -0.008975 eV
 added-field ion interaction         -0.247655 eV  (added to PSCEN)


 Free energy of the ion-electron system (eV)
  ---------------------------------------------------
  alpha Z        PSCENC =         1.07096709
  Ewald energy   TEWEN  =      3901.13736820
  -Hartree energ DENC   =     -5603.20518427
  -exchange      EXHF   =       113.16637520
  -V(xc)+E(xc)   XCENC  =       146.32007986
  PAW double counting   =      4267.10293461    -4278.05301859
  entropy T*S    EENTRO =        -0.00000000
  eigenvalues    EBANDS =      -733.48714596
  atomic energy  EATOM  =      2059.26955741
  ---------------------------------------------------
  free energy    TOTEN  =      -126.67806645 eV

  energy without entropy =     -126.67806645  energy(sigma->0) =     -126.67806645
  exchange ACFDT corr.  =        -0.00000000  see jH, gK, PRB 81, 115126


--------------------------------------------------------------------------------------------------------




--------------------------------------- Iteration      1(  41)  ---------------------------------------


    POTLOK:  cpu time      0.8618: real time      0.8649
    SETDIJ:  cpu time      0.0025: real time      0.0025
    TRIAL :  cpu time      4.9867: real time      5.0145
    CORREC:  cpu time      0.0002: real time      0.0002
    CHARGE:  cpu time      0.1070: real time      0.1079
    --------------------------------------------
      LOOP:  cpu time      5.9585: real time      5.9902

 eigenvalue-minimisations  :     0
 total energy-change (2. order) :-0.2059471E-04  (-0.2035967E-04)
 number of electron      50.0000008 magnetization 
 augmentation part        1.9751602 magnetization 

 DIPCOR: dipole corrections for dipol
 direction  1 min pos     1, direction  2 min pos     1, direction  3 min pos     1,
 dipolmoment           1.187333      0.944156     -0.281937 electrons x Angstroem
 Tr[quadrupol]        29.919638

 energy correction for charged system         0.000000 eV
 dipol+quadrupol energy correction           -0.008975 eV
 added-field ion interaction         -0.247650 eV  (added to PSCEN)


 Free energy of the ion-electron system (eV)
  ---------------------------------------------------
  alpha Z        PSCENC =         1.07097261
  Ewald energy   TEWEN  =      3901.13736820
  -Hartree energ DENC   =     -5603.20369767
  -exchange      EXHF   =       113.16636291
  -V(xc)+E(xc)   XCENC  =       146.31996898
  PAW double counting   =      4267.10903955    -4278.05912869
  entropy T*S    EENTRO =        -0.00000000
  eigenvalues    EBANDS =      -733.48853034
  atomic energy  EATOM  =      2059.26955741
  ---------------------------------------------------
  free energy    TOTEN  =      -126.67808705 eV

  energy without entropy =     -126.67808705  energy(sigma->0) =     -126.67808705
  exchange ACFDT corr.  =        -0.00000000  see jH, gK, PRB 81, 115126


--------------------------------------------------------------------------------------------------------




--------------------------------------- Iteration      1(  42)  ---------------------------------------


    POTLOK:  cpu time      0.8547: real time      0.8577
    SETDIJ:  cpu time      0.0023: real time      0.0023
    TRIAL :  cpu time      4.9921: real time      5.0213
    CORREC:  cpu time      0.0002: real time      0.0002
    CHARGE:  cpu time      0.1070: real time      0.1079
    --------------------------------------------
      LOOP:  cpu time      5.9566: real time      5.9896

 eigenvalue-minimisations  :     0
 total energy-change (2. order) :-0.1745064E-04  (-0.1653445E-04)
 number of electron      50.0000008 magnetization 
 augmentation part        1.9751585 magnetization 

 DIPCOR: dipole corrections for dipol
 direction  1 min pos     1, direction  2 min pos     1, direction  3 min pos     1,
 dipolmoment           1.187306      0.944168     -0.281910 electrons x Angstroem
 Tr[quadrupol]        29.919511

 energy correction for charged system         0.000000 eV
 dipol+quadrupol energy correction           -0.008974 eV
 added-field ion interaction         -0.247649 eV  (added to PSCEN)


 Free energy of the ion-electron system (eV)
  ---------------------------------------------------
  alpha Z        PSCENC =         1.07097401
  Ewald energy   TEWEN  =      3901.13736820
  -Hartree energ DENC   =     -5603.20590584
  -exchange      EXHF   =       113.16642448
  -V(xc)+E(xc)   XCENC  =       146.32006808
  PAW double counting   =      4267.11700317    -4278.06710764
  entropy T*S    EENTRO =        -0.00000000
  eigenvalues    EBANDS =      -733.48648635
  atomic energy  EATOM  =      2059.26955741
  ---------------------------------------------------
  free energy    TOTEN  =      -126.67810450 eV

  energy without entropy =     -126.67810450  energy(sigma->0) =     -126.67810450
  exchange ACFDT corr.  =        -0.00000000  see jH, gK, PRB 81, 115126


--------------------------------------------------------------------------------------------------------




--------------------------------------- Iteration      1(  43)  ---------------------------------------


    POTLOK:  cpu time      0.8538: real time      0.8570
    SETDIJ:  cpu time      0.0022: real time      0.0022
    TRIAL :  cpu time      4.9940: real time      5.0216
    CORREC:  cpu time      0.0004: real time      0.0004
    CHARGE:  cpu time      0.1072: real time      0.1081
    --------------------------------------------
      LOOP:  cpu time      5.9578: real time      5.9896

 eigenvalue-minimisations  :     0
 total energy-change (2. order) :-0.1349389E-04  (-0.1359069E-04)
 number of electron      50.0000008 magnetization 
 augmentation part        1.9751579 magnetization 

 DIPCOR: dipole corrections for dipol
 direction  1 min pos     1, direction  2 min pos     1, direction  3 min pos     1,
 dipolmoment           1.187261      0.944195     -0.281905 electrons x Angstroem
 Tr[quadrupol]        29.919679

 energy correction for charged system         0.000000 eV
 dipol+quadrupol energy correction           -0.008974 eV
 added-field ion interaction         -0.247646 eV  (added to PSCEN)


 Free energy of the ion-electron system (eV)
  ---------------------------------------------------
  alpha Z        PSCENC =         1.07097719
  Ewald energy   TEWEN  =      3901.13736820
  -Hartree energ DENC   =     -5603.20482791
  -exchange      EXHF   =       113.16642819
  -V(xc)+E(xc)   XCENC  =       146.32000302
  PAW double counting   =      4267.12215987    -4278.07226945
  entropy T*S    EENTRO =        -0.00000000
  eigenvalues    EBANDS =      -733.48751450
  atomic energy  EATOM  =      2059.26955741
  ---------------------------------------------------
  free energy    TOTEN  =      -126.67811799 eV

  energy without entropy =     -126.67811799  energy(sigma->0) =     -126.67811799
  exchange ACFDT corr.  =        -0.00000000  see jH, gK, PRB 81, 115126


--------------------------------------------------------------------------------------------------------




--------------------------------------- Iteration      1(  44)  ---------------------------------------


    POTLOK:  cpu time      0.8495: real time      0.8527
    SETDIJ:  cpu time      0.0066: real time      0.0066
    TRIAL :  cpu time      4.9709: real time      4.9999
    CORREC:  cpu time      0.0002: real time      0.0002
    CHARGE:  cpu time      0.1072: real time      0.1080
    --------------------------------------------
      LOOP:  cpu time      5.9350: real time      5.9680

 eigenvalue-minimisations  :     0
 total energy-change (2. order) :-0.1051940E-04  (-0.1105779E-04)
 number of electron      50.0000008 magnetization 
 augmentation part        1.9751562 magnetization 

 DIPCOR: dipole corrections for dipol
 direction  1 min pos     1, direction  2 min pos     1, direction  3 min pos     1,
 dipolmoment           1.187218      0.944197     -0.281894 electrons x Angstroem
 Tr[quadrupol]        29.919547

 energy correction for charged system         0.000000 eV
 dipol+quadrupol energy correction           -0.008974 eV
 added-field ion interaction         -0.247642 eV  (added to PSCEN)


 Free energy of the ion-electron system (eV)
  ---------------------------------------------------
  alpha Z        PSCENC =         1.07098126
  Ewald energy   TEWEN  =      3901.13736820
  -Hartree energ DENC   =     -5603.20604793
  -exchange      EXHF   =       113.16646397
  -V(xc)+E(xc)   XCENC  =       146.32006305
  PAW double counting   =      4267.12777306    -4278.07788981
  entropy T*S    EENTRO =        -0.00000000
  eigenvalues    EBANDS =      -733.48639772
  atomic energy  EATOM  =      2059.26955741
  ---------------------------------------------------
  free energy    TOTEN  =      -126.67812851 eV

  energy without entropy =     -126.67812851  energy(sigma->0) =     -126.67812851
  exchange ACFDT corr.  =        -0.00000000  see jH, gK, PRB 81, 115126


--------------------------------------------------------------------------------------------------------




--------------------------------------- Iteration      1(  45)  ---------------------------------------


    POTLOK:  cpu time      0.8534: real time      0.8566
    SETDIJ:  cpu time      0.0023: real time      0.0023
    TRIAL :  cpu time      4.9814: real time      5.0107
    CORREC:  cpu time      0.0001: real time      0.0001
    CHARGE:  cpu time      0.1072: real time      0.1081
    --------------------------------------------
      LOOP:  cpu time      5.9446: real time      5.9781

 eigenvalue-minimisations  :     0
 total energy-change (2. order) :-0.9510149E-05  (-0.9054559E-05)
 number of electron      50.0000008 magnetization 
 augmentation part        1.9751565 magnetization 

 DIPCOR: dipole corrections for dipol
 direction  1 min pos     1, direction  2 min pos     1, direction  3 min pos     1,
 dipolmoment           1.187214      0.944216     -0.281895 electrons x Angstroem
 Tr[quadrupol]        29.919705

 energy correction for charged system         0.000000 eV
 dipol+quadrupol energy correction           -0.008974 eV
 added-field ion interaction         -0.247643 eV  (added to PSCEN)


 Free energy of the ion-electron system (eV)
  ---------------------------------------------------
  alpha Z        PSCENC =         1.07098003
  Ewald energy   TEWEN  =      3901.13736820
  -Hartree energ DENC   =     -5603.20485370
  -exchange      EXHF   =       113.16645629
  -V(xc)+E(xc)   XCENC  =       146.32000652
  PAW double counting   =      4267.13042197    -4278.08054053
  entropy T*S    EENTRO =        -0.00000000
  eigenvalues    EBANDS =      -733.48753422
  atomic energy  EATOM  =      2059.26955741
  ---------------------------------------------------
  free energy    TOTEN  =      -126.67813802 eV

  energy without entropy =     -126.67813802  energy(sigma->0) =     -126.67813802
  exchange ACFDT corr.  =        -0.00000000  see jH, gK, PRB 81, 115126


--------------------------------------------------------------------------------------------------------




--------------------------------------- Iteration      1(  46)  ---------------------------------------


    POTLOK:  cpu time      0.8579: real time      0.8611
    SETDIJ:  cpu time      0.0036: real time      0.0036
    TRIAL :  cpu time      4.9958: real time      5.0248
    CORREC:  cpu time      0.0002: real time      0.0002
    CHARGE:  cpu time      0.1070: real time      0.1079
    --------------------------------------------
      LOOP:  cpu time      5.9649: real time      6.0108

 eigenvalue-minimisations  :     0
 total energy-change (2. order) :-0.5910060E-05  (-0.8179447E-05)
 number of electron      50.0000008 magnetization 
 augmentation part        1.9751552 magnetization 

 DIPCOR: dipole corrections for dipol
 direction  1 min pos     1, direction  2 min pos     1, direction  3 min pos     1,
 dipolmoment           1.187178      0.944225     -0.281861 electrons x Angstroem
 Tr[quadrupol]        29.919741

 energy correction for charged system         0.000000 eV
 dipol+quadrupol energy correction           -0.008974 eV
 added-field ion interaction         -0.247641 eV  (added to PSCEN)


 Free energy of the ion-electron system (eV)
  ---------------------------------------------------
  alpha Z        PSCENC =         1.07098231
  Ewald energy   TEWEN  =      3901.13736820
  -Hartree energ DENC   =     -5603.20516470
  -exchange      EXHF   =       113.16648435
  -V(xc)+E(xc)   XCENC  =       146.32002628
  PAW double counting   =      4267.13376179    -4278.08388863
  entropy T*S    EENTRO =        -0.00000000
  eigenvalues    EBANDS =      -733.48727094
  atomic energy  EATOM  =      2059.26955741
  ---------------------------------------------------
  free energy    TOTEN  =      -126.67814393 eV

  energy without entropy =     -126.67814393  energy(sigma->0) =     -126.67814393
  exchange ACFDT corr.  =        -0.00000000  see jH, gK, PRB 81, 115126


--------------------------------------------------------------------------------------------------------




--------------------------------------- Iteration      1(  47)  ---------------------------------------


    POTLOK:  cpu time      0.8504: real time      0.8536
    SETDIJ:  cpu time      0.0051: real time      0.0051
    TRIAL :  cpu time      5.0038: real time      5.0330
    CORREC:  cpu time      0.0001: real time      0.0001
    CHARGE:  cpu time      0.1069: real time      0.1078
    --------------------------------------------
      LOOP:  cpu time      5.9668: real time      6.0001

 eigenvalue-minimisations  :     0
 total energy-change (2. order) :-0.5957710E-05  (-0.8044867E-05)
 number of electron      50.0000008 magnetization 
 augmentation part        1.9751558 magnetization 

 DIPCOR: dipole corrections for dipol
 direction  1 min pos     1, direction  2 min pos     1, direction  3 min pos     1,
 dipolmoment           1.187165      0.944241     -0.281880 electrons x Angstroem
 Tr[quadrupol]        29.919664

 energy correction for charged system         0.000000 eV
 dipol+quadrupol energy correction           -0.008973 eV
 added-field ion interaction         -0.247640 eV  (added to PSCEN)


 Free energy of the ion-electron system (eV)
  ---------------------------------------------------
  alpha Z        PSCENC =         1.07098394
  Ewald energy   TEWEN  =      3901.13736820
  -Hartree energ DENC   =     -5603.20510042
  -exchange      EXHF   =       113.16649458
  -V(xc)+E(xc)   XCENC  =       146.32006509
  PAW double counting   =      4267.13572535    -4278.08585280
  entropy T*S    EENTRO =        -0.00000000
  eigenvalues    EBANDS =      -733.48739122
  atomic energy  EATOM  =      2059.26955741
  ---------------------------------------------------
  free energy    TOTEN  =      -126.67814989 eV

  energy without entropy =     -126.67814989  energy(sigma->0) =     -126.67814989
  exchange ACFDT corr.  =        -0.00000000  see jH, gK, PRB 81, 115126


--------------------------------------------------------------------------------------------------------




--------------------------------------- Iteration      1(  48)  ---------------------------------------


    POTLOK:  cpu time      0.8533: real time      0.8565
    SETDIJ:  cpu time      0.0024: real time      0.0024
    TRIAL :  cpu time      4.9801: real time      5.0083
    CORREC:  cpu time      0.0002: real time      0.0002
    CHARGE:  cpu time      0.1070: real time      0.1078
    --------------------------------------------
      LOOP:  cpu time      5.9433: real time      5.9755

 eigenvalue-minimisations  :     0
 total energy-change (2. order) :-0.4501409E-05  (-0.8708120E-05)
 number of electron      50.0000008 magnetization 
 augmentation part        1.9751558 magnetization 

 DIPCOR: dipole corrections for dipol
 direction  1 min pos     1, direction  2 min pos     1, direction  3 min pos     1,
 dipolmoment           1.187163      0.944252     -0.281838 electrons x Angstroem
 Tr[quadrupol]        29.919905

 energy correction for charged system         0.000000 eV
 dipol+quadrupol energy correction           -0.008974 eV
 added-field ion interaction         -0.247643 eV  (added to PSCEN)


 Free energy of the ion-electron system (eV)
  ---------------------------------------------------
  alpha Z        PSCENC =         1.07098060
  Ewald energy   TEWEN  =      3901.13736820
  -Hartree energ DENC   =     -5603.20394231
  -exchange      EXHF   =       113.16649315
  -V(xc)+E(xc)   XCENC  =       146.31995887
  PAW double counting   =      4267.13688416    -4278.08701870
  entropy T*S    EENTRO =        -0.00000000
  eigenvalues    EBANDS =      -733.48843577
  atomic energy  EATOM  =      2059.26955741
  ---------------------------------------------------
  free energy    TOTEN  =      -126.67815439 eV

  energy without entropy =     -126.67815439  energy(sigma->0) =     -126.67815439
  exchange ACFDT corr.  =        -0.00000000  see jH, gK, PRB 81, 115126


--------------------------------------------------------------------------------------------------------




--------------------------------------- Iteration      1(  49)  ---------------------------------------


    POTLOK:  cpu time      0.8533: real time      0.8565
    SETDIJ:  cpu time      0.0025: real time      0.0025
    TRIAL :  cpu time      4.9978: real time      5.0259
    CORREC:  cpu time      0.0002: real time      0.0002
    CHARGE:  cpu time      0.1070: real time      0.1080
    --------------------------------------------
      LOOP:  cpu time      5.9611: real time      5.9934

 eigenvalue-minimisations  :     0
 total energy-change (2. order) :-0.4104029E-05  (-0.8356405E-05)
 number of electron      50.0000008 magnetization 
 augmentation part        1.9751566 magnetization 

 DIPCOR: dipole corrections for dipol
 direction  1 min pos     1, direction  2 min pos     1, direction  3 min pos     1,
 dipolmoment           1.187160      0.944254     -0.281856 electrons x Angstroem
 Tr[quadrupol]        29.919710

 energy correction for charged system         0.000000 eV
 dipol+quadrupol energy correction           -0.008974 eV
 added-field ion interaction         -0.247643 eV  (added to PSCEN)


 Free energy of the ion-electron system (eV)
  ---------------------------------------------------
  alpha Z        PSCENC =         1.07098069
  Ewald energy   TEWEN  =      3901.13736820
  -Hartree energ DENC   =     -5603.20504318
  -exchange      EXHF   =       113.16652988
  -V(xc)+E(xc)   XCENC  =       146.32008596
  PAW double counting   =      4267.13932333    -4278.08946116
  entropy T*S    EENTRO =        -0.00000000
  eigenvalues    EBANDS =      -733.48749963
  atomic energy  EATOM  =      2059.26955741
  ---------------------------------------------------
  free energy    TOTEN  =      -126.67815849 eV

  energy without entropy =     -126.67815849  energy(sigma->0) =     -126.67815849
  exchange ACFDT corr.  =        -0.00000000  see jH, gK, PRB 81, 115126


--------------------------------------------------------------------------------------------------------




--------------------------------------- Iteration      1(  50)  ---------------------------------------


    POTLOK:  cpu time      0.8531: real time      0.8562
    SETDIJ:  cpu time      0.0023: real time      0.0023
    TRIAL :  cpu time      4.9835: real time      5.0118
    CORREC:  cpu time      0.0002: real time      0.0002
    CHARGE:  cpu time      0.1073: real time      0.1079
    --------------------------------------------
      LOOP:  cpu time      5.9466: real time      5.9786

 eigenvalue-minimisations  :     0
 total energy-change (2. order) :-0.2333609E-05  (-0.6729875E-05)
 number of electron      50.0000008 magnetization 
 augmentation part        1.9751568 magnetization 

 DIPCOR: dipole corrections for dipol
 direction  1 min pos     1, direction  2 min pos     1, direction  3 min pos     1,
 dipolmoment           1.187148      0.944274     -0.281835 electrons x Angstroem
 Tr[quadrupol]        29.919922

 energy correction for charged system         0.000000 eV
 dipol+quadrupol energy correction           -0.008974 eV
 added-field ion interaction         -0.247644 eV  (added to PSCEN)


 Free energy of the ion-electron system (eV)
  ---------------------------------------------------
  alpha Z        PSCENC =         1.07097945
  Ewald energy   TEWEN  =      3901.13736820
  -Hartree energ DENC   =     -5603.20363092
  -exchange      EXHF   =       113.16651543
  -V(xc)+E(xc)   XCENC  =       146.32001255
  PAW double counting   =      4267.13839778    -4278.08854196
  entropy T*S    EENTRO =        -0.00000000
  eigenvalues    EBANDS =      -733.48881877
  atomic energy  EATOM  =      2059.26955741
  ---------------------------------------------------
  free energy    TOTEN  =      -126.67816083 eV

  energy without entropy =     -126.67816083  energy(sigma->0) =     -126.67816083
  exchange ACFDT corr.  =        -0.00000000  see jH, gK, PRB 81, 115126


--------------------------------------------------------------------------------------------------------




--------------------------------------- Iteration      1(  51)  ---------------------------------------


    POTLOK:  cpu time      0.8768: real time      0.8801
    SETDIJ:  cpu time      0.0033: real time      0.0033
    TRIAL :  cpu time      4.9756: real time      5.0037
    CORREC:  cpu time      0.0002: real time      0.0002
    CHARGE:  cpu time      0.1071: real time      0.1079
    --------------------------------------------
      LOOP:  cpu time      5.9633: real time      5.9955

 eigenvalue-minimisations  :     0
 total energy-change (2. order) :-0.3932149E-05  (-0.4620598E-05)
 number of electron      50.0000008 magnetization 
 augmentation part        1.9751594 magnetization 

 DIPCOR: dipole corrections for dipol
 direction  1 min pos     1, direction  2 min pos     1, direction  3 min pos     1,
 dipolmoment           1.187167      0.944274     -0.281838 electrons x Angstroem
 Tr[quadrupol]        29.919901

 energy correction for charged system         0.000000 eV
 dipol+quadrupol energy correction           -0.008974 eV
 added-field ion interaction         -0.247646 eV  (added to PSCEN)


 Free energy of the ion-electron system (eV)
  ---------------------------------------------------
  alpha Z        PSCENC =         1.07097740
  Ewald energy   TEWEN  =      3901.13736820
  -Hartree energ DENC   =     -5603.20349424
  -exchange      EXHF   =       113.16653161
  -V(xc)+E(xc)   XCENC  =       146.31998533
  PAW double counting   =      4267.13984034    -4278.08998758
  entropy T*S    EENTRO =        -0.00000000
  eigenvalues    EBANDS =      -733.48894324
  atomic energy  EATOM  =      2059.26955741
  ---------------------------------------------------
  free energy    TOTEN  =      -126.67816476 eV

  energy without entropy =     -126.67816476  energy(sigma->0) =     -126.67816476
  exchange ACFDT corr.  =        -0.00000000  see jH, gK, PRB 81, 115126


--------------------------------------------------------------------------------------------------------




--------------------------------------- Iteration      1(  52)  ---------------------------------------


    POTLOK:  cpu time      0.8518: real time      0.8549
    SETDIJ:  cpu time      0.0042: real time      0.0042
    TRIAL :  cpu time      5.0117: real time      5.0401
    CORREC:  cpu time      0.0002: real time      0.0001
    CHARGE:  cpu time      0.1073: real time      0.1081
    --------------------------------------------
      LOOP:  cpu time      5.9753: real time      6.0078

 eigenvalue-minimisations  :     0
 total energy-change (2. order) :-0.2752407E-05  (-0.3842214E-05)
 number of electron      50.0000008 magnetization 
 augmentation part        1.9751577 magnetization 

 DIPCOR: dipole corrections for dipol
 direction  1 min pos     1, direction  2 min pos     1, direction  3 min pos     1,
 dipolmoment           1.187150      0.944276     -0.281829 electrons x Angstroem
 Tr[quadrupol]        29.919771

 energy correction for charged system         0.000000 eV
 dipol+quadrupol energy correction           -0.008974 eV
 added-field ion interaction         -0.247644 eV  (added to PSCEN)


 Free energy of the ion-electron system (eV)
  ---------------------------------------------------
  alpha Z        PSCENC =         1.07097941
  Ewald energy   TEWEN  =      3901.13736820
  -Hartree energ DENC   =     -5603.20498857
  -exchange      EXHF   =       113.16657434
  -V(xc)+E(xc)   XCENC  =       146.32015024
  PAW double counting   =      4267.14126723    -4278.09142473
  entropy T*S    EENTRO =        -0.00000000
  eigenvalues    EBANDS =      -733.48765103
  atomic energy  EATOM  =      2059.26955741
  ---------------------------------------------------
  free energy    TOTEN  =      -126.67816751 eV

  energy without entropy =     -126.67816751  energy(sigma->0) =     -126.67816751
  exchange ACFDT corr.  =        -0.00000000  see jH, gK, PRB 81, 115126


--------------------------------------------------------------------------------------------------------




--------------------------------------- Iteration      1(  53)  ---------------------------------------


    POTLOK:  cpu time      0.8536: real time      0.8568
    SETDIJ:  cpu time      0.0021: real time      0.0021
    TRIAL :  cpu time      4.9879: real time      5.0160
    CORREC:  cpu time      0.0002: real time      0.0003
    CHARGE:  cpu time      0.1076: real time      0.1082
    --------------------------------------------
      LOOP:  cpu time      5.9518: real time      5.9838

 eigenvalue-minimisations  :     0
 total energy-change (2. order) :-0.1084149E-05  (-0.3538290E-05)
 number of electron      50.0000008 magnetization 
 augmentation part        1.9751616 magnetization 

 DIPCOR: dipole corrections for dipol
 direction  1 min pos     1, direction  2 min pos     1, direction  3 min pos     1,
 dipolmoment           1.187172      0.944299     -0.281837 electrons x Angstroem
 Tr[quadrupol]        29.920090

 energy correction for charged system         0.000000 eV
 dipol+quadrupol energy correction           -0.008974 eV
 added-field ion interaction         -0.247651 eV  (added to PSCEN)


 Free energy of the ion-electron system (eV)
  ---------------------------------------------------
  alpha Z        PSCENC =         1.07097271
  Ewald energy   TEWEN  =      3901.13736820
  -Hartree energ DENC   =     -5603.20172413
  -exchange      EXHF   =       113.16651448
  -V(xc)+E(xc)   XCENC  =       146.31990228
  PAW double counting   =      4267.13864947    -4278.08880459
  entropy T*S    EENTRO =        -0.00000000
  eigenvalues    EBANDS =      -733.49060443
  atomic energy  EATOM  =      2059.26955741
  ---------------------------------------------------
  free energy    TOTEN  =      -126.67816860 eV

  energy without entropy =     -126.67816860  energy(sigma->0) =     -126.67816860
  exchange ACFDT corr.  =        -0.00000000  see jH, gK, PRB 81, 115126


--------------------------------------------------------------------------------------------------------




--------------------------------------- Iteration      1(  54)  ---------------------------------------


    POTLOK:  cpu time      0.8537: real time      0.8569
    SETDIJ:  cpu time      0.0025: real time      0.0025
    TRIAL :  cpu time      4.9843: real time      5.0128
    CORREC:  cpu time      0.0001: real time      0.0001
    CHARGE:  cpu time      0.1075: real time      0.1084
    --------------------------------------------
      LOOP:  cpu time      5.9483: real time      5.9809

 eigenvalue-minimisations  :     0
 total energy-change (2. order) :-0.2348652E-05  (-0.3025963E-05)
 number of electron      50.0000008 magnetization 
 augmentation part        1.9751607 magnetization 

 DIPCOR: dipole corrections for dipol
 direction  1 min pos     1, direction  2 min pos     1, direction  3 min pos     1,
 dipolmoment           1.187171      0.944282     -0.281819 electrons x Angstroem
 Tr[quadrupol]        29.919820

 energy correction for charged system         0.000000 eV
 dipol+quadrupol energy correction           -0.008974 eV
 added-field ion interaction         -0.247648 eV  (added to PSCEN)


 Free energy of the ion-electron system (eV)
  ---------------------------------------------------
  alpha Z        PSCENC =         1.07097524
  Ewald energy   TEWEN  =      3901.13736820
  -Hartree energ DENC   =     -5603.20490954
  -exchange      EXHF   =       113.16659812
  -V(xc)+E(xc)   XCENC  =       146.32013945
  PAW double counting   =      4267.14187620    -4278.09204503
  entropy T*S    EENTRO =        -0.00000000
  eigenvalues    EBANDS =      -733.48773099
  atomic energy  EATOM  =      2059.26955741
  ---------------------------------------------------
  free energy    TOTEN  =      -126.67817095 eV

  energy without entropy =     -126.67817095  energy(sigma->0) =     -126.67817095
  exchange ACFDT corr.  =        -0.00000000  see jH, gK, PRB 81, 115126


--------------------------------------------------------------------------------------------------------




--------------------------------------- Iteration      1(  55)  ---------------------------------------


    POTLOK:  cpu time      0.8536: real time      0.8568
    SETDIJ:  cpu time      0.0021: real time      0.0021
    TRIAL :  cpu time      4.9981: real time      5.0263
    CORREC:  cpu time      0.0002: real time      0.0002
    CHARGE:  cpu time      0.1071: real time      0.1079
    --------------------------------------------
      LOOP:  cpu time      5.9613: real time      5.9934

 eigenvalue-minimisations  :     0
 total energy-change (2. order) :-0.1260799E-05  (-0.2763998E-05)
 number of electron      50.0000008 magnetization 
 augmentation part        1.9751629 magnetization 

 DIPCOR: dipole corrections for dipol
 direction  1 min pos     1, direction  2 min pos     1, direction  3 min pos     1,
 dipolmoment           1.187174      0.944313     -0.281828 electrons x Angstroem
 Tr[quadrupol]        29.919973

 energy correction for charged system         0.000000 eV
 dipol+quadrupol energy correction           -0.008974 eV
 added-field ion interaction         -0.247651 eV  (added to PSCEN)


 Free energy of the ion-electron system (eV)
  ---------------------------------------------------
  alpha Z        PSCENC =         1.07097235
  Ewald energy   TEWEN  =      3901.13736820
  -Hartree energ DENC   =     -5603.20279504
  -exchange      EXHF   =       113.16655900
  -V(xc)+E(xc)   XCENC  =       146.32000264
  PAW double counting   =      4267.13988404    -4278.09005256
  entropy T*S    EENTRO =        -0.00000000
  eigenvalues    EBANDS =      -733.48966823
  atomic energy  EATOM  =      2059.26955741
  ---------------------------------------------------
  free energy    TOTEN  =      -126.67817221 eV

  energy without entropy =     -126.67817221  energy(sigma->0) =     -126.67817221
  exchange ACFDT corr.  =        -0.00000000  see jH, gK, PRB 81, 115126


--------------------------------------------------------------------------------------------------------




--------------------------------------- Iteration      1(  56)  ---------------------------------------


    POTLOK:  cpu time      0.8589: real time      0.8621
    SETDIJ:  cpu time      0.0022: real time      0.0022
    TRIAL :  cpu time      4.9881: real time      5.0166
    CORREC:  cpu time      0.0001: real time      0.0003
    CHARGE:  cpu time      0.1075: real time      0.1081
    --------------------------------------------
      LOOP:  cpu time      5.9572: real time      5.9897

 eigenvalue-minimisations  :     0
 total energy-change (2. order) :-0.2522694E-05  (-0.2718708E-05)
 number of electron      50.0000008 magnetization 
 augmentation part        1.9751628 magnetization 

 DIPCOR: dipole corrections for dipol
 direction  1 min pos     1, direction  2 min pos     1, direction  3 min pos     1,
 dipolmoment           1.187180      0.944287     -0.281818 electrons x Angstroem
 Tr[quadrupol]        29.920006

 energy correction for charged system         0.000000 eV
 dipol+quadrupol energy correction           -0.008974 eV
 added-field ion interaction         -0.247649 eV  (added to PSCEN)


 Free energy of the ion-electron system (eV)
  ---------------------------------------------------
  alpha Z        PSCENC =         1.07097469
  Ewald energy   TEWEN  =      3901.13736820
  -Hartree energ DENC   =     -5603.20326949
  -exchange      EXHF   =       113.16658518
  -V(xc)+E(xc)   XCENC  =       146.32007622
  PAW double counting   =      4267.14062756    -4278.09080463
  entropy T*S    EENTRO =        -0.00000000
  eigenvalues    EBANDS =      -733.48928986
  atomic energy  EATOM  =      2059.26955741
  ---------------------------------------------------
  free energy    TOTEN  =      -126.67817473 eV

  energy without entropy =     -126.67817473  energy(sigma->0) =     -126.67817473
  exchange ACFDT corr.  =        -0.00000000  see jH, gK, PRB 81, 115126


--------------------------------------------------------------------------------------------------------




--------------------------------------- Iteration      1(  57)  ---------------------------------------


    POTLOK:  cpu time      0.8492: real time      0.8525
    SETDIJ:  cpu time      0.0068: real time      0.0068
    TRIAL :  cpu time      4.9732: real time      5.0064
    CORREC:  cpu time      0.0001: real time      0.0001
    CHARGE:  cpu time      0.1071: real time      0.1081
    --------------------------------------------
      LOOP:  cpu time      5.9370: real time      5.9876

 eigenvalue-minimisations  :     0
 total energy-change (2. order) :-0.6596456E-06  (-0.2357117E-05)
 number of electron      50.0000008 magnetization 
 augmentation part        1.9751645 magnetization 

 DIPCOR: dipole corrections for dipol
 direction  1 min pos     1, direction  2 min pos     1, direction  3 min pos     1,
 dipolmoment           1.187182      0.944320     -0.281826 electrons x Angstroem
 Tr[quadrupol]        29.919964

 energy correction for charged system         0.000000 eV
 dipol+quadrupol energy correction           -0.008974 eV
 added-field ion interaction         -0.247655 eV  (added to PSCEN)


 Free energy of the ion-electron system (eV)
  ---------------------------------------------------
  alpha Z        PSCENC =         1.07096806
  Ewald energy   TEWEN  =      3901.13736820
  -Hartree energ DENC   =     -5603.20302391
  -exchange      EXHF   =       113.16658102
  -V(xc)+E(xc)   XCENC  =       146.32002256
  PAW double counting   =      4267.14059231    -4278.09077092
  entropy T*S    EENTRO =        -0.00000000
  eigenvalues    EBANDS =      -733.48947011
  atomic energy  EATOM  =      2059.26955741
  ---------------------------------------------------
  free energy    TOTEN  =      -126.67817539 eV

  energy without entropy =     -126.67817539  energy(sigma->0) =     -126.67817539
  exchange ACFDT corr.  =        -0.00000000  see jH, gK, PRB 81, 115126


--------------------------------------------------------------------------------------------------------




--------------------------------------- Iteration      1(  58)  ---------------------------------------


    POTLOK:  cpu time      0.8528: real time      0.8565
    SETDIJ:  cpu time      0.0022: real time      0.0022
    TRIAL :  cpu time      4.9942: real time      5.0280
    CORREC:  cpu time      0.0002: real time      0.0002
    CHARGE:  cpu time      0.1069: real time      0.1079
    --------------------------------------------
      LOOP:  cpu time      5.9563: real time      5.9950

 eigenvalue-minimisations  :     0
 total energy-change (2. order) :-0.1748711E-05  (-0.2204675E-05)
 number of electron      50.0000008 magnetization 
 augmentation part        1.9751645 magnetization 

 DIPCOR: dipole corrections for dipol
 direction  1 min pos     1, direction  2 min pos     1, direction  3 min pos     1,
 dipolmoment           1.187183      0.944307     -0.281802 electrons x Angstroem
 Tr[quadrupol]        29.919991

 energy correction for charged system         0.000000 eV
 dipol+quadrupol energy correction           -0.008974 eV
 added-field ion interaction         -0.247653 eV  (added to PSCEN)


 Free energy of the ion-electron system (eV)
  ---------------------------------------------------
  alpha Z        PSCENC =         1.07097024
  Ewald energy   TEWEN  =      3901.13736820
  -Hartree energ DENC   =     -5603.20330956
  -exchange      EXHF   =       113.16660420
  -V(xc)+E(xc)   XCENC  =       146.32011545
  PAW double counting   =      4267.14114255    -4278.09132798
  entropy T*S    EENTRO =        -0.00000000
  eigenvalues    EBANDS =      -733.48929765
  atomic energy  EATOM  =      2059.26955741
  ---------------------------------------------------
  free energy    TOTEN  =      -126.67817714 eV

  energy without entropy =     -126.67817714  energy(sigma->0) =     -126.67817714
  exchange ACFDT corr.  =        -0.00000000  see jH, gK, PRB 81, 115126


--------------------------------------------------------------------------------------------------------




--------------------------------------- Iteration      1(  59)  ---------------------------------------


    POTLOK:  cpu time      0.8557: real time      0.8593
    SETDIJ:  cpu time      0.0023: real time      0.0023
    TRIAL :  cpu time      4.9909: real time      5.0241
    CORREC:  cpu time      0.0001: real time      0.0001
    CHARGE:  cpu time      0.1073: real time      0.1083
    --------------------------------------------
      LOOP:  cpu time      5.9564: real time      5.9943

 eigenvalue-minimisations  :     0
 total energy-change (2. order) :-0.4106450E-06  (-0.1922311E-05)
 number of electron      50.0000008 magnetization 
 augmentation part        1.9751661 magnetization 

 DIPCOR: dipole corrections for dipol
 direction  1 min pos     1, direction  2 min pos     1, direction  3 min pos     1,
 dipolmoment           1.187195      0.944321     -0.281828 electrons x Angstroem
 Tr[quadrupol]        29.920070

 energy correction for charged system         0.000000 eV
 dipol+quadrupol energy correction           -0.008974 eV
 added-field ion interaction         -0.247656 eV  (added to PSCEN)


 Free energy of the ion-electron system (eV)
  ---------------------------------------------------
  alpha Z        PSCENC =         1.07096714
  Ewald energy   TEWEN  =      3901.13736820
  -Hartree energ DENC   =     -5603.20239092
  -exchange      EXHF   =       113.16658281
  -V(xc)+E(xc)   XCENC  =       146.31998167
  PAW double counting   =      4267.14004397    -4278.09023089
  entropy T*S    EENTRO =        -0.00000000
  eigenvalues    EBANDS =      -733.49005693
  atomic energy  EATOM  =      2059.26955741
  ---------------------------------------------------
  free energy    TOTEN  =      -126.67817755 eV

  energy without entropy =     -126.67817755  energy(sigma->0) =     -126.67817755
  exchange ACFDT corr.  =        -0.00000000  see jH, gK, PRB 81, 115126


--------------------------------------------------------------------------------------------------------




--------------------------------------- Iteration      1(  60)  ---------------------------------------


    POTLOK:  cpu time      0.8485: real time      0.8522
    SETDIJ:  cpu time      0.0074: real time      0.0074
    TRIAL :  cpu time      4.9891: real time      5.0234
    CORREC:  cpu time      0.0002: real time      0.0002
    CHARGE:  cpu time      0.1069: real time      0.1080
    --------------------------------------------
      LOOP:  cpu time      5.9523: real time      5.9913

 eigenvalue-minimisations  :     0
 total energy-change (2. order) :-0.1627412E-05  (-0.1772320E-05)
 number of electron      50.0000008 magnetization 
 augmentation part        1.9751658 magnetization 

 DIPCOR: dipole corrections for dipol
 direction  1 min pos     1, direction  2 min pos     1, direction  3 min pos     1,
 dipolmoment           1.187191      0.944313     -0.281801 electrons x Angstroem
 Tr[quadrupol]        29.919945

 energy correction for charged system         0.000000 eV
 dipol+quadrupol energy correction           -0.008974 eV
 added-field ion interaction         -0.247655 eV  (added to PSCEN)


 Free energy of the ion-electron system (eV)
  ---------------------------------------------------
  alpha Z        PSCENC =         1.07096812
  Ewald energy   TEWEN  =      3901.13736820
  -Hartree energ DENC   =     -5603.20351613
  -exchange      EXHF   =       113.16662309
  -V(xc)+E(xc)   XCENC  =       146.32012625
  PAW double counting   =      4267.14165754    -4278.09185101
  entropy T*S    EENTRO =        -0.00000000
  eigenvalues    EBANDS =      -733.48911264
  atomic energy  EATOM  =      2059.26955741
  ---------------------------------------------------
  free energy    TOTEN  =      -126.67817918 eV

  energy without entropy =     -126.67817918  energy(sigma->0) =     -126.67817918
  exchange ACFDT corr.  =        -0.00000000  see jH, gK, PRB 81, 115126


--------------------------------------------------------------------------------------------------------




--------------------------------------- Iteration      1(  61)  ---------------------------------------


    POTLOK:  cpu time      0.8621: real time      0.8658
    SETDIJ:  cpu time      0.0073: real time      0.0073
    TRIAL :  cpu time      4.9689: real time      5.0030
    CORREC:  cpu time      0.0001: real time      0.0002
    CHARGE:  cpu time      0.1072: real time      0.1080
    --------------------------------------------
      LOOP:  cpu time      5.9458: real time      5.9846

 eigenvalue-minimisations  :     0
 total energy-change (2. order) : 0.6978826E-07  (-0.1616637E-05)
 number of electron      50.0000008 magnetization 
 augmentation part        1.9751673 magnetization 

 DIPCOR: dipole corrections for dipol
 direction  1 min pos     1, direction  2 min pos     1, direction  3 min pos     1,
 dipolmoment           1.187201      0.944331     -0.281822 electrons x Angstroem
 Tr[quadrupol]        29.920130

 energy correction for charged system         0.000000 eV
 dipol+quadrupol energy correction           -0.008974 eV
 added-field ion interaction         -0.247658 eV  (added to PSCEN)


 Free energy of the ion-electron system (eV)
  ---------------------------------------------------
  alpha Z        PSCENC =         1.07096442
  Ewald energy   TEWEN  =      3901.13736820
  -Hartree energ DENC   =     -5603.20224366
  -exchange      EXHF   =       113.16659304
  -V(xc)+E(xc)   XCENC  =       146.31997913
  PAW double counting   =      4267.13971215    -4278.08990602
  entropy T*S    EENTRO =        -0.00000000
  eigenvalues    EBANDS =      -733.49020376
  atomic energy  EATOM  =      2059.26955741
  ---------------------------------------------------
  free energy    TOTEN  =      -126.67817911 eV

  energy without entropy =     -126.67817911  energy(sigma->0) =     -126.67817911
  exchange ACFDT corr.  =        -0.00000000  see jH, gK, PRB 81, 115126


--------------------------------------------------------------------------------------------------------




--------------------------------------- Iteration      1(  62)  ---------------------------------------


    POTLOK:  cpu time      0.8522: real time      0.8559
    SETDIJ:  cpu time      0.0025: real time      0.0025
    TRIAL :  cpu time      4.9698: real time      5.0047
    CORREC:  cpu time      0.0001: real time      0.0001
    CHARGE:  cpu time      0.1071: real time      0.1080
    --------------------------------------------
      LOOP:  cpu time      5.9319: real time      5.9714

 eigenvalue-minimisations  :     0
 total energy-change (2. order) :-0.1337699E-05  (-0.1524166E-05)
 number of electron      50.0000008 magnetization 
 augmentation part        1.9751666 magnetization 

 DIPCOR: dipole corrections for dipol
 direction  1 min pos     1, direction  2 min pos     1, direction  3 min pos     1,
 dipolmoment           1.187198      0.944323     -0.281798 electrons x Angstroem
 Tr[quadrupol]        29.919980

 energy correction for charged system         0.000000 eV
 dipol+quadrupol energy correction           -0.008974 eV
 added-field ion interaction         -0.247656 eV  (added to PSCEN)


 Free energy of the ion-electron system (eV)
  ---------------------------------------------------
  alpha Z        PSCENC =         1.07096677
  Ewald energy   TEWEN  =      3901.13736820
  -Hartree energ DENC   =     -5603.20342383
  -exchange      EXHF   =       113.16663112
  -V(xc)+E(xc)   XCENC  =       146.32012700
  PAW double counting   =      4267.14134409    -4278.09154396
  entropy T*S    EENTRO =        -0.00000000
  eigenvalues    EBANDS =      -733.48920724
  atomic energy  EATOM  =      2059.26955741
  ---------------------------------------------------
  free energy    TOTEN  =      -126.67818044 eV

  energy without entropy =     -126.67818044  energy(sigma->0) =     -126.67818044
  exchange ACFDT corr.  =        -0.00000000  see jH, gK, PRB 81, 115126


--------------------------------------------------------------------------------------------------------




--------------------------------------- Iteration      1(  63)  ---------------------------------------


    POTLOK:  cpu time      0.8524: real time      0.8562
    SETDIJ:  cpu time      0.0024: real time      0.0024
    TRIAL :  cpu time      4.9808: real time      5.0149
    CORREC:  cpu time      0.0001: real time      0.0001
    CHARGE:  cpu time      0.1069: real time      0.1078
    --------------------------------------------
      LOOP:  cpu time      5.9428: real time      5.9817

 eigenvalue-minimisations  :     0
 total energy-change (2. order) : 0.2216793E-06  (-0.1345490E-05)
 number of electron      50.0000008 magnetization 
 augmentation part        1.9751684 magnetization 

 DIPCOR: dipole corrections for dipol
 direction  1 min pos     1, direction  2 min pos     1, direction  3 min pos     1,
 dipolmoment           1.187199      0.944331     -0.281819 electrons x Angstroem
 Tr[quadrupol]        29.920069

 energy correction for charged system         0.000000 eV
 dipol+quadrupol energy correction           -0.008974 eV
 added-field ion interaction         -0.247658 eV  (added to PSCEN)


 Free energy of the ion-electron system (eV)
  ---------------------------------------------------
  alpha Z        PSCENC =         1.07096483
  Ewald energy   TEWEN  =      3901.13736820
  -Hartree energ DENC   =     -5603.20233676
  -exchange      EXHF   =       113.16660882
  -V(xc)+E(xc)   XCENC  =       146.32000290
  PAW double counting   =      4267.14025597    -4278.09045487
  entropy T*S    EENTRO =        -0.00000000
  eigenvalues    EBANDS =      -733.49014672
  atomic energy  EATOM  =      2059.26955741
  ---------------------------------------------------
  free energy    TOTEN  =      -126.67818022 eV

  energy without entropy =     -126.67818022  energy(sigma->0) =     -126.67818022
  exchange ACFDT corr.  =        -0.00000000  see jH, gK, PRB 81, 115126


--------------------------------------------------------------------------------------------------------




--------------------------------------- Iteration      1(  64)  ---------------------------------------


    POTLOK:  cpu time      0.8525: real time      0.8565
    SETDIJ:  cpu time      0.0022: real time      0.0022
    TRIAL :  cpu time      4.9825: real time      5.0164
    CORREC:  cpu time      0.0001: real time      0.0001
    CHARGE:  cpu time      0.1071: real time      0.1081
    --------------------------------------------
      LOOP:  cpu time      5.9448: real time      5.9836

 eigenvalue-minimisations  :     0
 total energy-change (2. order) :-0.1896646E-05  (-0.1311745E-05)
 number of electron      50.0000008 magnetization 
 augmentation part        1.9751678 magnetization 

 DIPCOR: dipole corrections for dipol
 direction  1 min pos     1, direction  2 min pos     1, direction  3 min pos     1,
 dipolmoment           1.187210      0.944328     -0.281798 electrons x Angstroem
 Tr[quadrupol]        29.920059

 energy correction for charged system         0.000000 eV
 dipol+quadrupol energy correction           -0.008974 eV
 added-field ion interaction         -0.247657 eV  (added to PSCEN)


 Free energy of the ion-electron system (eV)
  ---------------------------------------------------
  alpha Z        PSCENC =         1.07096565
  Ewald energy   TEWEN  =      3901.13736820
  -Hartree energ DENC   =     -5603.20309892
  -exchange      EXHF   =       113.16663188
  -V(xc)+E(xc)   XCENC  =       146.32011515
  PAW double counting   =      4267.14083553    -4278.09104061
  entropy T*S    EENTRO =        -0.00000000
  eigenvalues    EBANDS =      -733.48951641
  atomic energy  EATOM  =      2059.26955741
  ---------------------------------------------------
  free energy    TOTEN  =      -126.67818212 eV

  energy without entropy =     -126.67818212  energy(sigma->0) =     -126.67818212
  exchange ACFDT corr.  =        -0.00000000  see jH, gK, PRB 81, 115126


--------------------------------------------------------------------------------------------------------




--------------------------------------- Iteration      1(  65)  ---------------------------------------


    POTLOK:  cpu time      0.8525: real time      0.8563
    SETDIJ:  cpu time      0.0022: real time      0.0022
    TRIAL :  cpu time      4.9733: real time      5.0056
    CORREC:  cpu time      0.0001: real time      0.0001
    CHARGE:  cpu time      0.1076: real time      0.1085
    --------------------------------------------
      LOOP:  cpu time      5.9360: real time      5.9728

 eigenvalue-minimisations  :     0
 total energy-change (2. order) : 0.9075457E-06  (-0.1400463E-05)
 number of electron      50.0000008 magnetization 
 augmentation part        1.9751690 magnetization 

 DIPCOR: dipole corrections for dipol
 direction  1 min pos     1, direction  2 min pos     1, direction  3 min pos     1,
 dipolmoment           1.187202      0.944332     -0.281812 electrons x Angstroem
 Tr[quadrupol]        29.920108

 energy correction for charged system         0.000000 eV
 dipol+quadrupol energy correction           -0.008974 eV
 added-field ion interaction         -0.247659 eV  (added to PSCEN)


 Free energy of the ion-electron system (eV)
  ---------------------------------------------------
  alpha Z        PSCENC =         1.07096399
  Ewald energy   TEWEN  =      3901.13736820
  -Hartree energ DENC   =     -5603.20183696
  -exchange      EXHF   =       113.16661428
  -V(xc)+E(xc)   XCENC  =       146.32001746
  PAW double counting   =      4267.14010768    -4278.09031236
  entropy T*S    EENTRO =        -0.00000000
  eigenvalues    EBANDS =      -733.49066092
  atomic energy  EATOM  =      2059.26955741
  ---------------------------------------------------
  free energy    TOTEN  =      -126.67818121 eV

  energy without entropy =     -126.67818121  energy(sigma->0) =     -126.67818121
  exchange ACFDT corr.  =        -0.00000000  see jH, gK, PRB 81, 115126


--------------------------------------------------------------------------------------------------------




--------------------------------------- Iteration      1(  66)  ---------------------------------------


    POTLOK:  cpu time      0.8554: real time      0.8588
    SETDIJ:  cpu time      0.0024: real time      0.0024
    TRIAL :  cpu time      4.9933: real time      5.0217
    CORREC:  cpu time      0.0001: real time      0.0001
    CHARGE:  cpu time      0.1074: real time      0.1083
    --------------------------------------------
      LOOP:  cpu time      5.9589: real time      5.9916

 eigenvalue-minimisations  :     0
 total energy-change (2. order) :-0.1339279E-05  (-0.1228331E-05)
 number of electron      50.0000008 magnetization 
 augmentation part        1.9751689 magnetization 

 DIPCOR: dipole corrections for dipol
 direction  1 min pos     1, direction  2 min pos     1, direction  3 min pos     1,
 dipolmoment           1.187210      0.944336     -0.281788 electrons x Angstroem
 Tr[quadrupol]        29.920074

 energy correction for charged system         0.000000 eV
 dipol+quadrupol energy correction           -0.008975 eV
 added-field ion interaction         -0.247661 eV  (added to PSCEN)


 Free energy of the ion-electron system (eV)
  ---------------------------------------------------
  alpha Z        PSCENC =         1.07096213
  Ewald energy   TEWEN  =      3901.13736820
  -Hartree energ DENC   =     -5603.20320230
  -exchange      EXHF   =       113.16664024
  -V(xc)+E(xc)   XCENC  =       146.32010136
  PAW double counting   =      4267.14061645    -4278.09082576
  entropy T*S    EENTRO =        -0.00000000
  eigenvalues    EBANDS =      -733.48940028
  atomic energy  EATOM  =      2059.26955741
  ---------------------------------------------------
  free energy    TOTEN  =      -126.67818255 eV

  energy without entropy =     -126.67818255  energy(sigma->0) =     -126.67818255
  exchange ACFDT corr.  =        -0.00000000  see jH, gK, PRB 81, 115126


--------------------------------------------------------------------------------------------------------




--------------------------------------- Iteration      1(  67)  ---------------------------------------


    POTLOK:  cpu time      0.8558: real time      0.8593
    SETDIJ:  cpu time      0.0022: real time      0.0022
    TRIAL :  cpu time      4.9895: real time      5.0194
    CORREC:  cpu time      0.0001: real time      0.0001
    CHARGE:  cpu time      0.1072: real time      0.1080
    --------------------------------------------
      LOOP:  cpu time      5.9550: real time      5.9893

 eigenvalue-minimisations  :     0
 total energy-change (2. order) : 0.1277580E-05  (-0.1173960E-05)
 number of electron      50.0000008 magnetization 
 augmentation part        1.9751701 magnetization 

 DIPCOR: dipole corrections for dipol
 direction  1 min pos     1, direction  2 min pos     1, direction  3 min pos     1,
 dipolmoment           1.187214      0.944333     -0.281805 electrons x Angstroem
 Tr[quadrupol]        29.920135

 energy correction for charged system         0.000000 eV
 dipol+quadrupol energy correction           -0.008974 eV
 added-field ion interaction         -0.247658 eV  (added to PSCEN)


 Free energy of the ion-electron system (eV)
  ---------------------------------------------------
  alpha Z        PSCENC =         1.07096506
  Ewald energy   TEWEN  =      3901.13736820
  -Hartree energ DENC   =     -5603.20189671
  -exchange      EXHF   =       113.16662287
  -V(xc)+E(xc)   XCENC  =       146.32002130
  PAW double counting   =      4267.13981394    -4278.09002387
  entropy T*S    EENTRO =        -0.00000000
  eigenvalues    EBANDS =      -733.49060948
  atomic energy  EATOM  =      2059.26955741
  ---------------------------------------------------
  free energy    TOTEN  =      -126.67818127 eV

  energy without entropy =     -126.67818127  energy(sigma->0) =     -126.67818127
  exchange ACFDT corr.  =        -0.00000000  see jH, gK, PRB 81, 115126


--------------------------------------------------------------------------------------------------------




--------------------------------------- Iteration      1(  68)  ---------------------------------------


    POTLOK:  cpu time      0.8511: real time      0.8546
    SETDIJ:  cpu time      0.0048: real time      0.0048
    TRIAL :  cpu time      4.9629: real time      4.9914
    CORREC:  cpu time      0.0001: real time      0.0001
    CHARGE:  cpu time      0.1071: real time      0.1079
    --------------------------------------------
      LOOP:  cpu time      5.9295: real time      5.9644

 eigenvalue-minimisations  :     0
 total energy-change (2. order) :-0.1914646E-05  (-0.1215023E-05)
 number of electron      50.0000008 magnetization 
 augmentation part        1.9751692 magnetization 

 DIPCOR: dipole corrections for dipol
 direction  1 min pos     1, direction  2 min pos     1, direction  3 min pos     1,
 dipolmoment           1.187206      0.944341     -0.281803 electrons x Angstroem
 Tr[quadrupol]        29.920030

 energy correction for charged system         0.000000 eV
 dipol+quadrupol energy correction           -0.008974 eV
 added-field ion interaction         -0.247658 eV  (added to PSCEN)


 Free energy of the ion-electron system (eV)
  ---------------------------------------------------
  alpha Z        PSCENC =         1.07096495
  Ewald energy   TEWEN  =      3901.13736820
  -Hartree energ DENC   =     -5603.20326215
  -exchange      EXHF   =       113.16665358
  -V(xc)+E(xc)   XCENC  =       146.32013543
  PAW double counting   =      4267.14090962    -4278.09112377
  entropy T*S    EENTRO =        -0.00000000
  eigenvalues    EBANDS =      -733.48938644
  atomic energy  EATOM  =      2059.26955741
  ---------------------------------------------------
  free energy    TOTEN  =      -126.67818319 eV

  energy without entropy =     -126.67818319  energy(sigma->0) =     -126.67818319
  exchange ACFDT corr.  =        -0.00000000  see jH, gK, PRB 81, 115126


--------------------------------------------------------------------------------------------------------




--------------------------------------- Iteration      1(  69)  ---------------------------------------


    POTLOK:  cpu time      0.8532: real time      0.8566
    SETDIJ:  cpu time      0.0023: real time      0.0023
    TRIAL :  cpu time      4.9797: real time      5.0081
    CORREC:  cpu time      0.0001: real time      0.0001
    CHARGE:  cpu time      0.1069: real time      0.1078
    --------------------------------------------
      LOOP:  cpu time      5.9425: real time      5.9751

 eigenvalue-minimisations  :     0
 total energy-change (2. order) : 0.3170535E-06  (-0.1232131E-05)
 number of electron      50.0000008 magnetization 
 augmentation part        1.9751709 magnetization 

 DIPCOR: dipole corrections for dipol
 direction  1 min pos     1, direction  2 min pos     1, direction  3 min pos     1,
 dipolmoment           1.187229      0.944340     -0.281799 electrons x Angstroem
 Tr[quadrupol]        29.920248

 energy correction for charged system         0.000000 eV
 dipol+quadrupol energy correction           -0.008975 eV
 added-field ion interaction         -0.247662 eV  (added to PSCEN)


 Free energy of the ion-electron system (eV)
  ---------------------------------------------------
  alpha Z        PSCENC =         1.07096084
  Ewald energy   TEWEN  =      3901.13736820
  -Hartree energ DENC   =     -5603.20109113
  -exchange      EXHF   =       113.16661002
  -V(xc)+E(xc)   XCENC  =       146.31997215
  PAW double counting   =      4267.13875426    -4278.08896644
  entropy T*S    EENTRO =        -0.00000000
  eigenvalues    EBANDS =      -733.49134816
  atomic energy  EATOM  =      2059.26955741
  ---------------------------------------------------
  free energy    TOTEN  =      -126.67818287 eV

  energy without entropy =     -126.67818287  energy(sigma->0) =     -126.67818287
  exchange ACFDT corr.  =        -0.00000000  see jH, gK, PRB 81, 115126


--------------------------------------------------------------------------------------------------------




--------------------------------------- Iteration      1(  70)  ---------------------------------------


    POTLOK:  cpu time      0.8532: real time      0.8566
    SETDIJ:  cpu time      0.0025: real time      0.0025
    TRIAL :  cpu time      4.9896: real time      5.0174
    CORREC:  cpu time      0.0001: real time      0.0001
    CHARGE:  cpu time      0.1070: real time      0.1079
    --------------------------------------------
      LOOP:  cpu time      5.9528: real time      5.9848

 eigenvalue-minimisations  :     0
 total energy-change (2. order) :-0.9293117E-06  (-0.1070361E-05)
 number of electron      50.0000008 magnetization 
 augmentation part        1.9751701 magnetization 

 DIPCOR: dipole corrections for dipol
 direction  1 min pos     1, direction  2 min pos     1, direction  3 min pos     1,
 dipolmoment           1.187203      0.944340     -0.281793 electrons x Angstroem
 Tr[quadrupol]        29.920003

 energy correction for charged system         0.000000 eV
 dipol+quadrupol energy correction           -0.008975 eV
 added-field ion interaction         -0.247660 eV  (added to PSCEN)


 Free energy of the ion-electron system (eV)
  ---------------------------------------------------
  alpha Z        PSCENC =         1.07096244
  Ewald energy   TEWEN  =      3901.13736820
  -Hartree energ DENC   =     -5603.20333040
  -exchange      EXHF   =       113.16666564
  -V(xc)+E(xc)   XCENC  =       146.32014235
  PAW double counting   =      4267.14116910    -4278.09138775
  entropy T*S    EENTRO =        -0.00000000
  eigenvalues    EBANDS =      -733.48933079
  atomic energy  EATOM  =      2059.26955741
  ---------------------------------------------------
  free energy    TOTEN  =      -126.67818380 eV

  energy without entropy =     -126.67818380  energy(sigma->0) =     -126.67818380
  exchange ACFDT corr.  =        -0.00000000  see jH, gK, PRB 81, 115126


--------------------------------------------------------------------------------------------------------




--------------------------------------- Iteration      1(  71)  ---------------------------------------


    POTLOK:  cpu time      0.8733: real time      0.8767
    SETDIJ:  cpu time      0.0045: real time      0.0045
    TRIAL :  cpu time      4.9764: real time      5.0044
    CORREC:  cpu time      0.0001: real time      0.0001
    EDDIAG:  cpu time      4.7039: real time      4.7295
    CHARGE:  cpu time      0.1082: real time      0.1088
    --------------------------------------------
      LOOP:  cpu time     10.6668: real time     10.7246

 eigenvalue-minimisations  :     0
 total energy-change (2. order) : 0.5017137E-06  (-0.9527290E-06)
 number of electron      50.0000008 magnetization 
 augmentation part        1.9751711 magnetization 

 DIPCOR: dipole corrections for dipol
 direction  1 min pos     1, direction  2 min pos     1, direction  3 min pos     1,
 dipolmoment           1.187229      0.944347     -0.281806 electrons x Angstroem
 Tr[quadrupol]        29.920204

 energy correction for charged system         0.000000 eV
 dipol+quadrupol energy correction           -0.008975 eV
 added-field ion interaction         -0.247662 eV  (added to PSCEN)


 Free energy of the ion-electron system (eV)
  ---------------------------------------------------
  alpha Z        PSCENC =         1.07096079
  Ewald energy   TEWEN  =      3901.13736820
  -Hartree energ DENC   =     -5603.20164276
  -exchange      EXHF   =       113.16666217
  -V(xc)+E(xc)   XCENC  =       146.31999423
  PAW double counting   =      4267.13892259    -4278.08913914
  entropy T*S    EENTRO =        -0.00000000
  eigenvalues    EBANDS =      -733.49082911
  atomic energy  EATOM  =      2059.26955741
  ---------------------------------------------------
  free energy    TOTEN  =      -126.67818330 eV

  energy without entropy =     -126.67818330  energy(sigma->0) =     -126.67818330
  exchange ACFDT corr.  =        -0.00000000  see jH, gK, PRB 81, 115126


--------------------------------------------------------------------------------------------------------


  average scaling for gradient   0.4517


 average (electrostatic) potential at core
  the test charge radii are     0.6991  0.5201  0.7089  0.7215
  (the norm of the test charge is              1.0000)
       1 -55.7874       2 -56.7107       3 -56.9478       4 -56.3605       5 -58.2139
       6 -39.4714       7 -39.4524       8 -39.0415       9 -39.6239      10 -40.7072
      11 -39.3390      12 -39.4464      13 -41.3211      14 -41.1656      15 -69.3898
      16 -68.8162      17 -70.1174      18 -74.5569
 
 
 
 E-fermi :  -6.5103     XC(G=0):  -0.2396     alpha+bet : -0.1408

 Fermi energy:        -6.5103079179

 k-point     1 :       0.0000    0.0000    0.0000
  band No.  band energies     occupation 
      1     -28.3135      2.00000
      2     -25.8672      2.00000
      3     -24.6238      2.00000
      4     -24.5309      2.00000
      5     -21.9028      2.00000
      6     -19.3911      2.00000
      7     -18.3633      2.00000
      8     -16.0675      2.00000
      9     -14.9799      2.00000
     10     -14.7113      2.00000
     11     -14.2841      2.00000
     12     -13.5898      2.00000
     13     -12.7933      2.00000
     14     -12.2064      2.00000
     15     -12.0792      2.00000
     16     -11.5868      2.00000
     17     -11.0725      2.00000
     18     -10.5622      2.00000
     19     -10.0095      2.00000
     20      -9.7805      2.00000
     21      -9.1108      2.00000
     22      -8.9687      2.00000
     23      -7.8254      2.00000
     24      -7.3826      2.00000
     25      -6.7423      2.00000
     26      -0.8222      0.00000
     27      -0.4882      0.00000
     28      -0.1740      0.00000
     29      -0.0422      0.00000
     30       0.1272      0.00000
     31       0.2130      0.00000
     32       0.3909      0.00000
     33       0.4320      0.00000
     34       0.4800      0.00000
     35       0.5132      0.00000
     36       0.5751      0.00000
     37       0.6159      0.00000
     38       0.6530      0.00000
     39       0.7331      0.00000
     40       0.7526      0.00000


--------------------------------------------------------------------------------------------------------


 soft charge-density along one line, spin component           1
         0         1         2         3         4         5         6         7         8         9
 total charge-density along one line
 
 pseudopotential strength for first ion, spin component:           1
 10.036  13.343   0.000   0.001  -0.000  -0.001  -0.004  -0.000
 13.343  17.738   0.000   0.002  -0.000  -0.001  -0.006  -0.000
  0.000   0.000  -4.309  -0.001   0.000   8.449   0.002  -0.000
  0.001   0.002  -0.001  -4.310   0.001   0.002   8.451  -0.002
 -0.000  -0.000   0.000   0.001  -4.311  -0.000  -0.002   8.452
 -0.001  -0.001   8.449   0.002  -0.000 -18.693  -0.003  -0.000
 -0.004  -0.006   0.002   8.451  -0.002  -0.003 -18.697   0.004
 -0.000  -0.000  -0.000  -0.002   8.452  -0.000   0.004 -18.698
 total augmentation occupancy for first ion, spin component:           1
  7.296  -3.094   0.015   0.020   0.011   0.008   0.012   0.004
 -3.094   1.335  -0.015  -0.025  -0.001  -0.006  -0.010  -0.003
  0.015  -0.015   1.587  -0.016  -0.019   0.124   0.003  -0.001
  0.020  -0.025  -0.016   1.563  -0.025   0.003   0.130  -0.003
  0.011  -0.001  -0.019  -0.025   1.610  -0.001  -0.003   0.129
  0.008  -0.006   0.124   0.003  -0.001   0.010   0.001   0.000
  0.012  -0.010   0.003   0.130  -0.003   0.001   0.011  -0.000
  0.004  -0.003  -0.001  -0.003   0.129   0.000  -0.000   0.011


------------------------ aborting loop because EDIFF is reached ----------------------------------------





 total charge

# of ion       s       p       d       tot
------------------------------------------
    1        0.838   1.776   0.000   2.614
    2        0.834   1.786   0.000   2.620
    3        0.828   1.766   0.000   2.594
    4        0.939   1.782   0.000   2.720
    5        0.863   1.662   0.000   2.525
    6        0.646   0.043   0.000   0.689
    7        0.648   0.045   0.000   0.693
    8        0.630   0.041   0.000   0.671
    9        0.666   0.047   0.000   0.714
   10        0.638   0.084   0.000   0.723
   11        0.638   0.041   0.000   0.679
   12        0.643   0.049   0.000   0.693
   13        0.616   0.078   0.000   0.694
   14        0.614   0.081   0.000   0.695
   15        1.202   2.793   0.000   3.995
   16        1.330   2.480   0.000   3.811
   17        1.199   2.764   0.000   3.962
   18        1.584   3.530   0.000   5.114
--------------------------------------------------
tot         15.356  20.850   0.000  36.205
 
    FORLOC:  cpu time      0.0476: real time      0.0483
    FORHF :  cpu time      2.5749: real time      2.5906
    FORNL :  cpu time      0.0823: real time      0.0828
    FORCOR:  cpu time      0.8215: real time      0.8244
    OFIELD:  cpu time      0.0019: real time      0.0020

 VOLUME and BASIS-vectors are now :
 -----------------------------------------------------------------------------
  energy-cutoff  :      500.00
  volume of cell :     8000.00
      direct lattice vectors                 reciprocal lattice vectors
    20.000000000  0.000000000  0.000000000     0.050000000  0.000000000  0.000000000
     0.000000000 20.000000000  0.000000000     0.000000000  0.050000000  0.000000000
     0.000000000  0.000000000 20.000000000     0.000000000  0.000000000  0.050000000

  length of vectors
    20.000000000 20.000000000 20.000000000     0.050000000  0.050000000  0.050000000


 FORCES acting on ions:
    Electron-Ion                     Ewald-Force                    Non-Local-Force
 -----------------------------------------------------------------------------------------------
   0.673E+02 0.152E+03 0.154E+03   -.675E+02 -.153E+03 -.156E+03   -.561E+00 0.418E+00 0.553E+00
   0.407E+02 0.143E+03 -.559E+02   -.426E+02 -.146E+03 0.564E+02   0.184E+01 0.171E+01 -.165E+01
   -.918E+02 -.354E+02 -.157E+03   0.892E+02 0.364E+02 0.162E+03   0.416E+01 -.150E+01 -.423E+01
   -.482E+02 -.140E+02 -.455E+02   0.453E+02 0.133E+02 0.466E+02   0.319E+01 0.870E+00 -.673E+00
   0.103E+03 0.207E+02 -.312E+02   -.101E+03 -.228E+02 0.305E+02   -.375E+01 0.500E+01 0.117E+01
   0.628E+02 0.572E+02 0.889E+01   -.671E+02 -.598E+02 -.819E+01   0.465E+01 0.240E+01 -.126E+01
   -.301E+02 0.653E+02 0.479E+02   0.336E+02 -.691E+02 -.499E+02   -.375E+01 0.344E+01 0.224E+01
   0.221E+02 -.194E+02 0.796E+02   -.229E+02 0.224E+02 -.829E+02   0.847E+00 -.359E+01 0.378E+01
   0.130E+02 0.695E+02 -.679E+02   -.136E+02 -.733E+02 0.729E+02   0.784E+00 0.359E+01 -.438E+01
   -.616E+02 0.611E+02 0.656E+02   0.652E+02 -.650E+02 -.696E+02   -.385E+01 0.403E+01 0.449E+01
   -.222E+02 0.430E+02 -.761E+02   0.228E+02 -.460E+02 0.801E+02   -.364E+00 0.346E+01 -.397E+01
   0.622E+00 -.669E+02 -.517E+02   -.336E+01 0.720E+02 0.535E+02   0.233E+01 -.507E+01 -.202E+01
   0.731E+02 0.651E+02 0.751E+01   -.758E+02 -.700E+02 -.857E+01   0.317E+01 0.588E+01 0.159E+01
   0.716E+02 -.602E+02 -.422E+02   -.748E+02 0.650E+02 0.446E+02   0.347E+01 -.534E+01 -.303E+01
   -.131E+03 0.592E+02 0.116E+03   0.129E+03 -.462E+02 -.130E+03   0.236E+01 -.121E+02 0.116E+02
   -.301E+03 -.779E+02 0.729E+02   0.338E+03 0.878E+02 -.864E+02   -.356E+02 -.942E+01 0.126E+02
   0.277E+03 0.155E+00 -.686E+02   -.277E+03 0.578E+00 0.684E+02   0.977E+00 -.110E+01 0.472E-01
   -.221E+01 -.405E+03 0.192E+02   0.224E+02 0.453E+03 -.245E+02   -.190E+02 -.441E+02 0.520E+01
 -----------------------------------------------------------------------------------------------
   0.436E+02 0.582E+02 -.243E+02   0.149E-12 0.114E-12 -.213E-13   -.391E+02 -.515E+02 0.221E+02
 
 
 POSITION                                       TOTAL-FORCE (eV/Angst)
 -----------------------------------------------------------------------------------
      9.19798      8.79495      8.77894        -0.824434      0.325079     -0.886504
      9.70761      9.49471     10.03028        -0.037848     -0.379651     -1.261721
     11.74557     10.51405     10.84412         1.771244     -0.521348      0.483963
     13.09934     10.84911     10.33641         0.658249      0.253508      0.350560
      8.83745     10.70168     10.20325        -1.230513      3.204313      0.506929
      8.24168      8.30470      9.04464         0.585918     -0.134702     -0.611712
      9.94429      8.10726      8.36252        -0.396647     -0.183457      0.320639
      9.00915      9.56332      7.98377         0.069062     -0.712264      0.616860
      9.56338      8.82139     10.87396         0.210878     -0.123146      0.481342
     11.59650      9.30263      9.15647        -0.402231      0.302512      0.648341
     11.83729      9.78799     11.69348         0.232020      0.643832     -0.133413
     11.31608     11.44428     11.22225        -0.320391     -0.198582     -0.274852
      6.98650      9.62324     10.24682         0.497428      1.182489      0.594286
      6.94015     11.29093     10.91266         0.438755     -0.757300     -0.764097
     11.04452      9.90632      9.76901        -0.169711     -0.085694     -0.711611
     14.15919     11.12293      9.95576        -0.877230     -0.282884      0.250266
      7.45794     10.51530     10.47767         1.049518     -0.461480     -0.137396
      9.31539     11.85521     10.10799        -1.254070     -2.071225      0.528119
 -----------------------------------------------------------------------------------
    total drift:                               -0.001926     -0.003563     -0.000559


--------------------------------------------------------------------------------------------------------



  FREE ENERGIE OF THE ION-ELECTRON SYSTEM (eV)
  ---------------------------------------------------
  free  energy   TOTEN  =      -126.67818330 eV

  energy  without entropy=     -126.67818330  energy(sigma->0) =     -126.67818330
 


--------------------------------------------------------------------------------------------------------


    POTLOK:  cpu time      0.8551: real time      0.8586


--------------------------------------------------------------------------------------------------------


 writing wavefunctions
     LOOP+:  cpu time    428.5780: real time    434.6455
    4ORBIT:  cpu time      0.0000: real time      0.0000



 total charge

# of ion       s       p       d       tot
------------------------------------------
    1        0.838   1.776   0.000   2.614
    2        0.834   1.786   0.000   2.620
    3        0.828   1.766   0.000   2.594
    4        0.939   1.782   0.000   2.720
    5        0.863   1.662   0.000   2.525
    6        0.646   0.043   0.000   0.689
    7        0.648   0.045   0.000   0.693
    8        0.630   0.041   0.000   0.671
    9        0.666   0.047   0.000   0.714
   10        0.638   0.084   0.000   0.723
   11        0.638   0.041   0.000   0.679
   12        0.643   0.049   0.000   0.693
   13        0.616   0.078   0.000   0.694
   14        0.614   0.081   0.000   0.695
   15        1.202   2.793   0.000   3.995
   16        1.330   2.480   0.000   3.811
   17        1.199   2.764   0.000   3.962
   18        1.584   3.530   0.000   5.114
--------------------------------------------------
tot         15.356  20.850   0.000  36.205
 

 total amount of memory used by VASP MPI-rank0   760551. kBytes
=======================================================================

   base      :      30000. kBytes
   nonl-proj :      27652. kBytes
   fftplans  :      75720. kBytes
   grid      :      99427. kBytes
   one-center:         15. kBytes
   HF        :         13. kBytes
   nonlr-proj:        824. kBytes
   wavefun   :      12207. kBytes
   fock_wrk  :     514693. kBytes
 
  
  
 General timing and accounting informations for this job:
 ========================================================
  
                  Total CPU time used (sec):      446.003
                            User time (sec):      393.234
                          System time (sec):       52.769
                         Elapsed time (sec):      459.749
  
                   Maximum memory used (kb):     1240332.
                   Average memory used (kb):          N/A
  
                          Minor page faults:      1702005
                          Major page faults:           52
                 Voluntary context switches:        19764
