Molecule_POSCAR_05
1.0
20.000000 0.000000 0.000000
0.000000 20.000000 0.000000
0.000000 0.000000 20.000000
C H N O
5 9 3 1
Cartesian
9.197977 8.794945 8.778937
9.707610 9.494713 10.030282
11.745567 10.514046 10.844125
13.099344 10.849112 10.336408
8.837445 10.701683 10.203252
8.241681 8.304701 9.044639
9.944292 8.107261 8.362519
9.009148 9.563317 7.983771
9.563381 8.821393 10.873957
11.596498 9.302632 9.156472
11.837290 9.787987 11.693475
11.316084 11.444282 11.222254
6.986500 9.623244 10.246817
6.940150 11.290929 10.912663
11.044521 9.906319 9.769006
14.159189 11.122930 9.955760
7.457937 10.515300 10.477670
9.315388 11.855208 10.107991
