Molecule_POSCAR_01
1.0
30.000000 0.000000 0.000000
0.000000 30.000000 0.000000
0.000000 0.000000 30.000000
C H Si
52 60 2
Cartesian
19.337426 13.289736 12.650354
20.625424 13.360339 13.452407
21.531485 12.249770 12.923938
18.734964 14.211132 15.588001
17.706703 14.792861 15.797669
16.404719 15.514202 16.038653
15.634536 14.831211 16.989476
16.239325 14.105303 17.965916
15.469875 13.469285 18.922846
14.114043 13.599151 18.841600
13.505112 14.343302 17.839027
14.286132 14.960450 16.909405
13.712636 15.760509 15.889321
12.304317 15.436528 15.680335
11.138761 15.175355 15.514297
9.043679 14.452655 13.502744
7.764696 13.679354 13.187777
10.242846 13.726448 12.923531
8.369585 16.096037 16.013608
7.170528 15.535359 16.749472
9.191339 16.967888 16.971989
9.087519 13.138309 16.266626
9.551405 13.354486 17.695879
7.766089 12.538757 16.146755
14.471003 16.420143 15.013860
13.891472 17.259976 14.115499
12.480613 17.507224 13.924246
11.707246 18.337821 14.709801
10.404940 18.623376 14.305399
9.879514 18.098063 13.153524
10.641842 17.275433 12.378552
11.906845 16.990170 12.760361
14.760666 17.998872 13.277911
14.163089 18.876783 12.368363
14.979185 19.626323 11.548752
16.345732 19.523225 11.615999
16.929491 18.637203 12.536318
16.126926 17.884888 13.356707
16.696499 17.005092 14.294319
18.128654 17.065757 14.409463
18.981371 16.711237 13.410574
20.363519 16.864067 13.550277
20.886523 17.384626 14.731290
20.011422 17.734502 15.731710
18.660112 17.575720 15.567888
15.881327 16.290603 15.097472
21.614356 14.120900 16.282365
22.879958 14.350913 15.495485
21.889700 13.384736 17.579225
20.043673 11.500482 15.749899
18.892557 10.985959 14.947028
21.280001 10.712970 15.573091
19.548916 13.852933 11.698750
19.129301 12.246769 12.326734
18.457126 13.633040 13.195020
21.207358 14.294482 13.218397
21.577313 12.450438 11.801678
22.582882 12.384043 13.232427
21.118170 11.250121 13.007634
17.311979 14.040594 17.977356
15.925848 12.880729 19.722562
13.477918 13.123598 19.558698
12.417273 14.429510 17.795587
8.921810 15.402271 12.986285
6.936502 14.188931 13.665621
7.635936 13.651405 12.069034
7.874215 12.658934 13.523971
10.071093 12.631475 13.129596
10.445437 13.939896 11.881426
11.120547 13.984391 13.543982
8.005417 16.801207 15.217712
6.790392 16.281017 17.512766
7.449368 14.651910 17.348957
6.367103 15.302998 16.057373
10.248868 16.701353 16.983790
8.788506 16.809292 18.014026
9.073502 18.040329 16.780470
9.844968 12.425989 15.819016
9.796062 14.441812 17.818668
10.513441 12.816854 17.914388
8.825780 13.023146 18.440784
6.951613 13.067949 15.685989
7.446959 12.161272 17.190980
7.840769 11.542197 15.593155
12.122530 18.738990 15.598932
9.772119 19.272020 14.893890
8.851442 18.333218 12.837882
10.174189 16.880796 11.467031
12.503736 16.333608 12.142849
13.081757 18.966329 12.316314
14.482547 20.305024 10.845227
16.990692 20.090635 10.998407
17.992876 18.588685 12.581879
18.646927 16.292418 12.467982
21.054923 16.604777 12.771020
21.969213 17.516170 14.862015
20.449735 18.123463 16.627085
18.003053 17.852258 16.364352
21.280374 15.152313 16.610926
23.354952 13.380372 15.256536
23.556977 15.065364 16.010372
22.594564 14.849261 14.553239
22.964356 13.078548 17.562622
21.708575 14.017088 18.482747
21.225687 12.515503 17.656796
19.686662 11.530089 16.816530
19.105790 10.536713 13.990181
18.178988 11.848548 14.776132
18.284098 10.231017 15.531341
22.164677 11.272638 15.254734
21.045358 9.816155 14.939692
21.552334 10.307301 16.594624
20.323766 13.310324 15.255265
9.343346 14.743998 15.273566
