Molecule_POSCAR_09
1.0
30.000000 0.000000 0.000000
0.000000 30.000000 0.000000
0.000000 0.000000 30.000000
C Cl H N O P
13 4 9 5 6 3
Cartesian
14.408400 10.952868 14.789090
13.716977 11.346690 13.668154
13.591345 12.701903 13.424893
14.109502 13.706159 14.226325
14.807242 13.300985 15.352814
14.927781 11.948845 15.589161
15.476435 14.234088 16.298783
16.206795 15.322003 15.593504
17.155113 14.845407 14.672609
17.948688 15.701209 13.939546
17.783599 17.051527 14.138045
16.860468 17.520224 15.034126
16.039290 16.668820 15.792654
13.690040 16.648586 19.319482
11.085719 16.353140 13.820995
10.774185 18.958501 14.794474
13.591249 20.859364 15.046274
13.308593 10.572565 13.037142
13.033589 12.931393 12.484136
15.479362 11.615046 16.486563
14.809872 14.513018 17.082115
16.259818 13.597921 16.854080
17.309010 13.789038 14.493788
18.414059 17.749825 13.556804
16.817210 18.615824 15.114163
12.853945 18.816753 15.439030
14.594191 9.582981 15.131358
18.911635 15.257685 13.005157
12.727851 15.933937 16.385608
13.700084 17.756083 14.469461
12.864838 18.618228 17.160711
14.150373 8.649077 14.450425
15.296821 9.273148 16.267500
19.587804 16.092923 12.383466
19.142832 13.931463 12.744186
15.183825 17.260753 16.626119
13.935508 15.051215 13.913853
13.695816 17.053278 17.296258
12.987207 16.224071 14.713770
12.762929 18.993459 15.403378
