Molecule_POSCAR_08
1.0
30.000000 0.000000 0.000000
0.000000 30.000000 0.000000
0.000000 0.000000 30.000000
C H N O S
28 36 2 4 2
Cartesian
9.175835 18.474806 15.148855
9.900904 17.427980 15.938066
8.967573 16.600907 16.772567
7.943792 15.885640 15.946854
8.652372 14.950224 14.964572
7.673822 14.208856 14.131271
8.261042 13.296950 13.134106
9.024853 12.116745 13.474721
10.456883 11.965649 15.641809
11.899097 12.099367 15.958985
12.636571 12.013956 17.127251
13.907264 12.520767 14.861997
14.869286 12.794835 13.860765
16.202606 13.316936 11.528859
16.883646 13.218195 12.747408
16.257527 12.969808 13.863877
17.256335 12.927475 14.974792
19.824192 13.225046 15.140126
20.148865 14.620051 15.625790
21.495562 14.571473 16.341940
21.898273 15.931700 16.863631
22.023754 16.956989 15.751298
22.430428 18.269036 16.385050
22.552296 19.295528 15.251241
23.582002 18.864183 14.253960
18.340600 13.355413 13.055948
12.548506 12.352676 14.838965
11.551464 12.396878 13.726825
9.149684 18.159742 14.065281
9.669105 19.440512 15.238208
8.092970 18.555289 15.451389
10.517304 16.811476 15.244641
10.650907 17.955937 16.583939
9.576306 15.884255 17.373785
8.458827 17.284761 17.484196
7.347034 16.645267 15.403605
7.259654 15.325683 16.597456
9.315165 14.296708 15.497831
9.230307 15.614448 14.271305
7.035570 15.015596 13.633265
6.901896 13.685335 14.768432
7.352482 12.917476 12.514369
8.785627 13.916163 12.299477
9.269103 11.553274 12.505876
8.289376 11.391068 14.001005
12.292095 11.812707 18.159570
16.435397 13.498998 10.521171
20.655308 12.876170 14.506966
19.784986 12.548597 16.027206
20.180849 15.277168 14.757328
19.396887 14.991550 16.351634
21.451739 13.896192 17.219427
22.287047 14.194884 15.678312
21.246783 16.268227 17.672465
22.920194 15.806954 17.291406
21.029361 17.091275 15.245559
22.783886 16.675916 15.014525
21.725782 18.629852 17.141496
23.412020 18.110433 16.871885
21.567177 19.411300 14.764687
22.861749 20.276374 15.691104
24.231950 18.075051 14.679602
24.234620 19.733536 13.988682
23.069995 18.464322 13.345768
10.235315 12.152249 14.240044
18.555730 13.172478 14.440891
9.537262 11.725452 16.451206
17.039001 12.716084 16.187845
19.283377 13.594544 12.265000
11.743054 12.607768 12.505384
14.268651 12.297143 16.622923
14.503115 13.013718 12.112327
