Molecule_POSCAR_08                      
   1.00000000000000     
    20.0000000000000000    0.0000000000000000    0.0000000000000000
     0.0000000000000000   20.0000000000000000    0.0000000000000000
     0.0000000000000000    0.0000000000000000   20.0000000000000000
   C    H    N 
     8    15     1
Direct
  0.6087369500000008  0.5453588999999965  0.5184618999999984
  0.5795224499999989  0.4768770000000018  0.5269696499999981
  0.5314814999999982  0.4566827000000018  0.4741404999999972
  0.5070236500000007  0.3865955500000027  0.4899309500000015
  0.4760753999999991  0.5033297499999989  0.4595111499999973
  0.4283176499999968  0.5210752500000027  0.5118848999999983
  0.3775868500000001  0.5698567999999966  0.4807018500000027
  0.4575638999999967  0.5533364500000033  0.5689788500000006
  0.5773937000000018  0.5811638500000029  0.4922401500000007
  0.6577395500000023  0.5438351499999996  0.4905722000000026
  0.6228858500000030  0.5660408500000003  0.5691002000000012
  0.6231232499999990  0.4408870000000036  0.5237046000000021
  0.5613746499999976  0.4718550999999991  0.5786999500000007
  0.5606750999999974  0.4511535999999978  0.4270706499999974
  0.5521435499999967  0.3574212999999986  0.5043860999999978
  0.4693046499999980  0.3854061500000014  0.5298718000000022
  0.4893913000000012  0.3647959999999983  0.4420369500000021
  0.4470657500000002  0.4804927500000034  0.4164749999999984
  0.4983450000000005  0.5495013499999999  0.4362579499999981
  0.3965366999999986  0.4764929999999978  0.5260468000000031
  0.4013381999999979  0.6169383000000010  0.4663477000000000
  0.3368634999999998  0.5759808500000005  0.5168070499999970
  0.3588221999999988  0.5446809999999971  0.4349518000000003
  0.4806886499999976  0.5802413999999985  0.6148511999999968
 
  0.00000000E+00  0.00000000E+00  0.00000000E+00
  0.00000000E+00  0.00000000E+00  0.00000000E+00
  0.00000000E+00  0.00000000E+00  0.00000000E+00
  0.00000000E+00  0.00000000E+00  0.00000000E+00
  0.00000000E+00  0.00000000E+00  0.00000000E+00
  0.00000000E+00  0.00000000E+00  0.00000000E+00
  0.00000000E+00  0.00000000E+00  0.00000000E+00
  0.00000000E+00  0.00000000E+00  0.00000000E+00
  0.00000000E+00  0.00000000E+00  0.00000000E+00
  0.00000000E+00  0.00000000E+00  0.00000000E+00
  0.00000000E+00  0.00000000E+00  0.00000000E+00
  0.00000000E+00  0.00000000E+00  0.00000000E+00
  0.00000000E+00  0.00000000E+00  0.00000000E+00
  0.00000000E+00  0.00000000E+00  0.00000000E+00
  0.00000000E+00  0.00000000E+00  0.00000000E+00
  0.00000000E+00  0.00000000E+00  0.00000000E+00
  0.00000000E+00  0.00000000E+00  0.00000000E+00
  0.00000000E+00  0.00000000E+00  0.00000000E+00
  0.00000000E+00  0.00000000E+00  0.00000000E+00
  0.00000000E+00  0.00000000E+00  0.00000000E+00
  0.00000000E+00  0.00000000E+00  0.00000000E+00
  0.00000000E+00  0.00000000E+00  0.00000000E+00
  0.00000000E+00  0.00000000E+00  0.00000000E+00
  0.00000000E+00  0.00000000E+00  0.00000000E+00
