 vasp.6.4.2 20Jul23 (build Mar 28 2025 16:44:38) complex                        
  
 executed on             LinuxIFC date 2026.02.17  14:50:42
 running   32 mpi-ranks, on    1 nodes
 distrk:  each k-point on   32 cores,    1 groups
 distr:  one band on NCORE=   4 cores,    8 groups


--------------------------------------------------------------------------------------------------------


 INCAR:
   SYSTEM = QM9_Benchmark_B3LYP_Gap_Dipole
   PREC = Accurate
   ENCUT = 500
   EDIFF = 1E-6
   ISMEAR = 0
   SIGMA = 0.05
   NELM = 100
   IBRION = -1
   NSW = 0
   LHFCALC = .TRUE.
   GGA = B3
   AEXX = 0.20
   AGGAX = 0.72
   AGGAC = 0.81
   ALDAC = 0.19
   ALGO = Damped
   TIME = 0.4
   LDIPOL = .TRUE.
   IDIPOL = 4
   DIPOL = 0.5 0.5 0.5
   LORBIT = 11
   NEDOS = 2000
   ISYM = 0
   LREAL = .FALSE.
   NCORE = 4

 POTCAR:    PAW_PBE C 08Apr2002                   
 POTCAR:    PAW_PBE H 15Jun2001                   
 POTCAR:    PAW_PBE N 08Apr2002                   
 POTCAR:    PAW_PBE C 08Apr2002                   
   VRHFIN =C: s2p2                                                                                  
   LEXCH  = PE                                                                                      
   EATOM  =   147.1560 eV,   10.8157 Ry                                                             
                                                                                                    
   TITEL  = PAW_PBE C 08Apr2002                                                                     
   LULTRA =        F    use ultrasoft PP ?                                                          
   IUNSCR =        1    unscreen: 0-lin 1-nonlin 2-no                                               
   RPACOR =    1.200    partial core radius                                                         
   POMASS =   12.011; ZVAL   =    4.000    mass and valenz                                          
   RCORE  =    1.500    outmost cutoff radius                                                       
   RWIGS  =    1.630; RWIGS  =    0.863    wigner-seitz radius (au A)                               
   ENMAX  =  400.000; ENMIN  =  300.000 eV                                                          
   ICORE  =        2    local potential                                                             
   LCOR   =        T    correct aug charges                                                         
   LPAW   =        T    paw PP                                                                      
   EAUG   =  644.873                                                                                
   DEXC   =    0.000                                                                                
   RMAX   =    1.529    core radius for proj-oper                                                   
   RAUG   =    1.300    factor for augmentation sphere                                              
   RDEP   =    1.501    radius for radial grids                                                     
   RDEPT  =    1.300    core radius for aug-charge                                                  
                                                                                                    
   Atomic configuration                                                                             
    4 entries                                                                                       
     n  l   j            E        occ.                                                              
     1  0  0.50      -273.3789   2.0000                                                             
     2  0  0.50       -13.7508   2.0000                                                             
     2  1  0.50        -5.2854   2.0000                                                             
     3  2  1.50        -5.4423   0.0000                                                             
   Description                                                                                      
     l       E           TYP  RCUT    TYP  RCUT                                                     
     0    -13.7508458     23  1.200                                                                 
     0     -8.2022199     23  1.200                                                                 
     1     -5.2854383     23  1.500                                                                 
     1     34.0145650     23  1.500                                                                 
     2     -5.4423304      7  1.500                                                                 
  local pseudopotential read in
  partial core-charges read in
  partial kinetic energy density read in
  atomic valenz-charges read in
  non local Contribution for L=           0  read in
    real space projection operators read in
  non local Contribution for L=           0  read in
    real space projection operators read in
  non local Contribution for L=           1  read in
    real space projection operators read in
  non local Contribution for L=           1  read in
    real space projection operators read in
    PAW grid and wavefunctions read in
 
   number of l-projection  operators is LMAX  =           4
   number of lm-projection operators is LMMAX =           8
 
 POTCAR:    PAW_PBE H 15Jun2001                   
   VRHFIN =H: ultrasoft test                                                                        
   LEXCH  = PE                                                                                      
   EATOM  =    12.4884 eV,    0.9179 Ry                                                             
                                                                                                    
   TITEL  = PAW_PBE H 15Jun2001                                                                     
   LULTRA =        F    use ultrasoft PP ?                                                          
   IUNSCR =        0    unscreen: 0-lin 1-nonlin 2-no                                               
   RPACOR =    0.000    partial core radius                                                         
   POMASS =    1.000; ZVAL   =    1.000    mass and valenz                                          
   RCORE  =    1.100    outmost cutoff radius                                                       
   RWIGS  =    0.700; RWIGS  =    0.370    wigner-seitz radius (au A)                               
   ENMAX  =  250.000; ENMIN  =  200.000 eV                                                          
   RCLOC  =    0.701    cutoff for local pot                                                        
   LCOR   =        T    correct aug charges                                                         
   LPAW   =        T    paw PP                                                                      
   EAUG   =  400.000                                                                                
   RMAX   =    1.123    core radius for proj-oper                                                   
   RAUG   =    1.200    factor for augmentation sphere                                              
   RDEP   =    1.112    radius for radial grids                                                     
   RDEPT  =    0.926    core radius for aug-charge                                                  
                                                                                                    
   Atomic configuration                                                                             
    2 entries                                                                                       
     n  l   j            E        occ.                                                              
     1  0  0.50        -6.4927   1.0000                                                             
     2  1  0.50        -3.4015   0.0000                                                             
   Description                                                                                      
     l       E           TYP  RCUT    TYP  RCUT                                                     
     0     -6.4927494     23  1.100                                                                 
     0      6.8029130     23  1.100                                                                 
     1     -4.0817478     23  1.100                                                                 
  local pseudopotential read in
  atomic valenz-charges read in
  non local Contribution for L=           0  read in
    real space projection operators read in
  non local Contribution for L=           0  read in
    real space projection operators read in
  non local Contribution for L=           1  read in
    real space projection operators read in
    PAW grid and wavefunctions read in
 
   number of l-projection  operators is LMAX  =           3
   number of lm-projection operators is LMMAX =           5
 
 POTCAR:    PAW_PBE N 08Apr2002                   
   VRHFIN =N: s2p3                                                                                  
   LEXCH  = PE                                                                                      
   EATOM  =   264.5486 eV,   19.4438 Ry                                                             
                                                                                                    
   TITEL  = PAW_PBE N 08Apr2002                                                                     
   LULTRA =        F    use ultrasoft PP ?                                                          
   IUNSCR =        1    unscreen: 0-lin 1-nonlin 2-no                                               
   RPACOR =    1.200    partial core radius                                                         
   POMASS =   14.001; ZVAL   =    5.000    mass and valenz                                          
   RCORE  =    1.500    outmost cutoff radius                                                       
   RWIGS  =    1.400; RWIGS  =    0.741    wigner-seitz radius (au A)                               
   ENMAX  =  400.000; ENMIN  =  300.000 eV                                                          
   ICORE  =        2    local potential                                                             
   LCOR   =        T    correct aug charges                                                         
   LPAW   =        T    paw PP                                                                      
   EAUG   =  627.112                                                                                
   DEXC   =    0.000                                                                                
   RMAX   =    1.529    core radius for proj-oper                                                   
   RAUG   =    1.300    factor for augmentation sphere                                              
   RDEP   =    1.514    radius for radial grids                                                     
   RDEPT  =    1.338    core radius for aug-charge                                                  
                                                                                                    
   Atomic configuration                                                                             
    4 entries                                                                                       
     n  l   j            E        occ.                                                              
     1  0  0.50      -384.7179   2.0000                                                             
     2  0  0.50       -18.5828   2.0000                                                             
     2  1  0.50        -7.0898   3.0000                                                             
     3  2  1.50        -6.8029   0.0000                                                             
   Description                                                                                      
     l       E           TYP  RCUT    TYP  RCUT                                                     
     0    -18.5828119     23  1.200                                                                 
     0    -13.5018863     23  1.200                                                                 
     1     -7.0897853     23  1.500                                                                 
     1      9.5240782     23  1.500                                                                 
     2     -6.8029130      7  1.500                                                                 
  local pseudopotential read in
  partial core-charges read in
  partial kinetic energy density read in
  atomic valenz-charges read in
  non local Contribution for L=           0  read in
    real space projection operators read in
  non local Contribution for L=           0  read in
    real space projection operators read in
  non local Contribution for L=           1  read in
    real space projection operators read in
  non local Contribution for L=           1  read in
    real space projection operators read in
    PAW grid and wavefunctions read in
 
   number of l-projection  operators is LMAX  =           4
   number of lm-projection operators is LMMAX =           8
 
 -----------------------------------------------------------------------------
|                                                                             |
|               ----> ADVICE to this user running VASP <----                  |
|                                                                             |
|     You have a (more or less) 'large supercell' and for larger cells it     |
|     might be more efficient to use real-space projection operators.         |
|     Therefore, try LREAL= Auto in the INCAR file.                           |
|     Mind: For very accurate calculation, you might also keep the            |
|     reciprocal projection scheme (i.e. LREAL=.FALSE.).                      |
|                                                                             |
 -----------------------------------------------------------------------------

 -----------------------------------------------------------------------------
|                                                                             |
|               ----> ADVICE to this user running VASP <----                  |
|                                                                             |
|     You enforced a specific xc type in the INCAR file but a different       |
|     type was found in the POTCAR file.                                      |
|     I HOPE YOU KNOW WHAT YOU ARE DOING!                                     |
|                                                                             |
 -----------------------------------------------------------------------------

  PAW_PBE C 08Apr2002                   :
 energy of atom  1       EATOM= -147.1560
 kinetic energy error for atom=    0.0076 (will be added to EATOM!!)
  PAW_PBE H 15Jun2001                   :
 energy of atom  2       EATOM=  -12.4884
 kinetic energy error for atom=    0.0020 (will be added to EATOM!!)
  PAW_PBE N 08Apr2002                   :
 energy of atom  3       EATOM= -264.5486
 kinetic energy error for atom=    0.0138 (will be added to EATOM!!)
 
 
 POSCAR: Molecule_POSCAR_08
  positions in cartesian coordinates
  No initial velocities read in
 exchange correlation table for  LEXCH =       11
   RHO(1)=    0.500       N(1)  =     2000
   RHO(2)=  100.500       N(2)  =     4000
 


--------------------------------------------------------------------------------------------------------


 ion  position               nearest neighbor table
   1  0.609  0.545  0.518-   9 1.09  10 1.13  11 1.13   2 1.50
   2  0.580  0.477  0.527-  13 1.10  12 1.13   3 1.48   1 1.50
   3  0.531  0.457  0.474-  14 1.11   5 1.48   2 1.48   4 1.52
   4  0.507  0.387  0.490-  16 1.10  17 1.11  15 1.11   3 1.52
   5  0.476  0.503  0.460-  19 1.13  18 1.13   6 1.46   3 1.48
   6  0.428  0.521  0.512-  20 1.13   8 1.44   5 1.46   7 1.54
   7  0.378  0.570  0.481-  21 1.09  22 1.10  23 1.11   6 1.54
   8  0.458  0.553  0.569-  24 1.16   6 1.44
   9  0.577  0.581  0.492-   1 1.09
  10  0.658  0.544  0.491-   1 1.13
  11  0.623  0.566  0.569-   1 1.13
  12  0.623  0.441  0.524-   2 1.13
  13  0.561  0.472  0.579-   2 1.10
  14  0.561  0.451  0.427-   3 1.11
  15  0.552  0.357  0.504-   4 1.11
  16  0.469  0.385  0.530-   4 1.10
  17  0.489  0.365  0.442-   4 1.11
  18  0.447  0.480  0.416-   5 1.13
  19  0.498  0.550  0.436-   5 1.13
  20  0.397  0.476  0.526-   6 1.13
  21  0.401  0.617  0.466-   7 1.09
  22  0.337  0.576  0.517-   7 1.10
  23  0.359  0.545  0.435-   7 1.11
  24  0.481  0.580  0.615-   8 1.16
 

IMPORTANT INFORMATION: All symmetrisations will be switched off!
NOSYMM: (Re-)initialisation of all symmetry stuff for point group C_1.


----------------------------------------------------------------------------------------

                                     Primitive cell                                     

  volume of cell :    8000.0000

  direct lattice vectors                    reciprocal lattice vectors
    20.000000000  0.000000000  0.000000000     0.050000000  0.000000000  0.000000000
     0.000000000 20.000000000  0.000000000     0.000000000  0.050000000  0.000000000
     0.000000000  0.000000000 20.000000000     0.000000000  0.000000000  0.050000000

  length of vectors
    20.000000000 20.000000000 20.000000000     0.050000000  0.050000000  0.050000000

  position of ions in fractional coordinates (direct lattice)
     0.608736950  0.545358900  0.518461900
     0.579522450  0.476877000  0.526969650
     0.531481500  0.456682700  0.474140500
     0.507023650  0.386595550  0.489930950
     0.476075400  0.503329750  0.459511150
     0.428317650  0.521075250  0.511884900
     0.377586850  0.569856800  0.480701850
     0.457563900  0.553336450  0.568978850
     0.577393700  0.581163850  0.492240150
     0.657739550  0.543835150  0.490572200
     0.622885850  0.566040850  0.569100200
     0.623123250  0.440887000  0.523704600
     0.561374650  0.471855100  0.578699950
     0.560675100  0.451153600  0.427070650
     0.552143550  0.357421300  0.504386100
     0.469304650  0.385406150  0.529871800
     0.489391300  0.364796000  0.442036950
     0.447065750  0.480492750  0.416475000
     0.498345000  0.549501350  0.436257950
     0.396536700  0.476493000  0.526046800
     0.401338200  0.616938300  0.466347700
     0.336863500  0.575980850  0.516807050
     0.358822200  0.544681000  0.434951800
     0.480688650  0.580241400  0.614851200

  ion indices of the primitive-cell ions
   primitive index   ion index
                 1           1
                 2           2
                 3           3
                 4           4
                 5           5
                 6           6
                 7           7
                 8           8
                 9           9
                10          10
                11          11
                12          12
                13          13
                14          14
                15          15
                16          16
                17          17
                18          18
                19          19
                20          20
                21          21
                22          22
                23          23
                24          24

----------------------------------------------------------------------------------------

 
 
 KPOINTS: Gamma-point only                        

Automatic generation of k-mesh.
 Grid dimensions read from file:
 generate k-points for:    1    1    1

 Generating k-lattice:

  Cartesian coordinates                     Fractional coordinates (reciprocal lattice)
     0.050000000  0.000000000  0.000000000     1.000000000  0.000000000  0.000000000
     0.000000000  0.050000000  0.000000000     0.000000000  1.000000000  0.000000000
     0.000000000  0.000000000  0.050000000     0.000000000  0.000000000  1.000000000

  Length of vectors
     0.050000000  0.050000000  0.050000000

  Shift w.r.t. Gamma in fractional coordinates (k-lattice)
     0.000000000  0.000000000  0.000000000

 
 Subroutine IBZKPT returns following result:
 ===========================================
 
 Found      1 irreducible k-points:
 
 Following reciprocal coordinates:
            Coordinates               Weight
  0.000000  0.000000  0.000000      1.000000
 
 Following cartesian coordinates:
            Coordinates               Weight
  0.000000  0.000000  0.000000      1.000000
 
 
 Subroutine IBZKPT_HF returns following result:
 ==============================================
 
 Found      1 k-points in 1st BZ
 the following      1 k-points will be used (e.g. in the exchange kernel)
 Following reciprocal coordinates:   # in IRBZ
  0.000000  0.000000  0.000000    1.00000000   1 t-inv F


--------------------------------------------------------------------------------------------------------




 Dimension of arrays:
   k-points           NKPTS =      1   k-points in BZ     NKDIM =      1   number of bands    NBANDS=     40
   number of dos      NEDOS =   2000   number of ions     NIONS =     24
   non local maximal  LDIM  =      4   non local SUM 2l+1 LMDIM =      8
   total plane-waves  NPLWV = ******
   max r-space proj   IRMAX =      1   max aug-charges    IRDMAX=   5390
   dimension x,y,z NGX =   150 NGY =  150 NGZ =  150
   dimension x,y,z NGXF=   300 NGYF=  300 NGZF=  300
   support grid    NGXF=   300 NGYF=  300 NGZF=  300
   ions per type =               8  15   1
   NGX,Y,Z   is equivalent  to a cutoff of  12.47, 12.47, 12.47 a.u.
   NGXF,Y,Z  is equivalent  to a cutoff of  24.94, 24.94, 24.94 a.u.

 SYSTEM =  QM9_Benchmark_B3LYP_Gap_Dipole          
 POSCAR =  Molecule_POSCAR_08                      

 Startparameter for this run:
   NWRITE =      2    write-flag & timer
   PREC   = accura    normal or accurate (medium, high low for compatibility)
   ISTART =      0    job   : 0-new  1-cont  2-samecut
   ICHARG =      2    charge: 1-file 2-atom 10-const
   ISPIN  =      1    spin polarized calculation?
   LNONCOLLINEAR =      F non collinear calculations
   LSORBIT =      F    spin-orbit coupling
   INIWAV =      1    electr: 0-lowe 1-rand  2-diag
   LASPH  =      F    aspherical Exc in radial PAW
 Electronic Relaxation 1
   ENCUT  =  500.0 eV  36.75 Ry    6.06 a.u.  36.46 36.46 36.46*2*pi/ulx,y,z
   ENINI  =  500.0     initial cutoff
   ENAUG  =  644.9 eV  augmentation charge cutoff
   NELM   =    100;   NELMIN=  2; NELMDL= -5     # of ELM steps 
   EDIFF  = 0.1E-05   stopping-criterion for ELM
   LREAL  =      F    real-space projection
   NLSPLINE    = F    spline interpolate recip. space projectors
   LCOMPAT=      F    compatible to vasp.4.4
   GGA_COMPAT  = T    GGA compatible to vasp.4.4-vasp.4.6
   LMAXPAW     = -100 max onsite density
   LMAXMIX     =    2 max onsite mixed and CHGCAR
   VOSKOWN=      0    Vosko Wilk Nusair interpolation
   ROPT   =    0.00000   0.00000   0.00000
 Ionic relaxation
   EDIFFG = 0.1E-04   stopping-criterion for IOM
   NSW    =      0    number of steps for IOM
   NBLOCK =      1;   KBLOCK =      1    inner block; outer block 
   IBRION =     -1    ionic relax: 0-MD 1-quasi-New 2-CG
   NFREE  =      0    steps in history (QN), initial steepest desc. (CG)
   ISIF   =      0    stress and relaxation
   IWAVPR =     10    prediction:  0-non 1-charg 2-wave 3-comb
   ISYM   =      0    0-nonsym 1-usesym 2-fastsym
   LCORR  =      T    Harris-Foulkes like correction to forces

   POTIM  = 0.5000    time-step for ionic-motion
   TEIN   =    0.0    initial temperature
   TEBEG  =    0.0;   TEEND  =   0.0 temperature during run
   SMASS  =  -3.00    Nose mass-parameter (am)
   estimated Nose-frequenzy (Omega)   =  0.10E-29 period in steps = 0.13E+47 mass=  -0.914E-26a.u.
   SCALEE = 1.0000    scale energy and forces
   NPACO  =    256;   APACO  = 10.0  distance and # of slots for P.C.
   PSTRESS=    0.0 pullay stress

  Mass of Ions in am
   POMASS =  12.01  1.00 14.00
  Ionic Valenz
   ZVAL   =   4.00  1.00  5.00
  Atomic Wigner-Seitz radii
   RWIGS  =  -1.00 -1.00 -1.00
  virtual crystal weights 
   VCA    =   1.00  1.00  1.00
   NELECT =      52.0000    total number of electrons
   NUPDOWN=      -1.0000    fix difference up-down

 DOS related values:
   EMIN   =  10.00;   EMAX   =-10.00  energy-range for DOS
   EFERMI =   0.00;   METHOD = LEGACY      
   ISMEAR =     0;   SIGMA  =   0.05  broadening in eV -4-tet -1-fermi 0-gaus

 Electronic relaxation 2 (details)
   IALGO  =     53    algorithm
   LDIAG  =      T    sub-space diagonalisation (order eigenvalues)
   LSUBROT=      F    optimize rotation matrix (better conditioning)
   TURBO    =      0    0=normal 1=particle mesh
   IRESTART =      0    0=no restart 2=restart with 2 vectors
   NREBOOT  =      0    no. of reboots
   NMIN     =      0    reboot dimension
   EREF     =   0.00    reference energy to select bands
   IMIX   =      4    mixing-type and parameters
     AMIX     =   0.40;   BMIX     =  1.00
     AMIX_MAG =   1.60;   BMIX_MAG =  1.00
     AMIN     =   0.10
     WC   =   100.;   INIMIX=   1;  MIXPRE=   1;  MAXMIX= -45

 Intra band minimization:
   WEIMIN = 0.0000     energy-eigenvalue tresh-hold
   EBREAK =  0.62E-08  absolut break condition
   DEPER  =   0.30     relativ break condition  

   TIME   =   0.40     timestep for ELM

  volume/ion in A,a.u.               =     333.33      2249.44
  Fermi-wavevector in a.u.,A,eV,Ry     =   0.305524  0.577357  1.270038  0.093345
  Thomas-Fermi vector in A             =   1.178628
 
 Write flags
   LWAVE        =      T    write WAVECAR
   LDOWNSAMPLE  =      F    k-point downsampling of WAVECAR
   LCHARG       =      T    write CHGCAR
   LVTOT        =      F    write LOCPOT, total local potential
   LVHAR        =      F    write LOCPOT, Hartree potential only
   LELF         =      F    write electronic localiz. function (ELF)
   LORBIT       =     11    0 simple, 1 ext, 2 COOP (PROOUT), +10 PAW based schemes


 Dipole corrections
   LMONO  =      F    monopole corrections only (constant potential shift)
   LDIPOL =      T    correct potential (dipole corrections)
   IDIPOL =      4    1-x, 2-y, 3-z, 4-all directions 
   EPSILON=  1.0000000 bulk dielectric constant

 Exchange correlation treatment:
   GGA     =    B3    GGA type
   LEXCH   =    11    internal setting for exchange type
   LIBXC   =     F    Libxc                    
   VOSKOWN =     0    Vosko Wilk Nusair interpolation
   EXXOEP  =     0    0=HF, 1=EXX-LHF (local Hartree Fock) 2=EXX OEP
   LHFCALC =     T    Hartree Fock is set to
   LSYMGRAD=     F    symmetrize gradient (conserves proper symmetry)
   PRECFOCK=normal    Normal, Fast or Accurate (Low or Medium for compatibility)
   LRHFCALC=     F    long range Hartree Fock
   LRSCOR  =     F    long range correlation only (use DFT for short range part)
   LTHOMAS =     F    Thomas Fermi screening in HF
   LMODELHF=     F    short range full HF, long range fraction AEXX
   FOCKCORR=     1    mode to apply convergence corrections
   LFOCKACE=     T    use Adeptively-Compressed-Exchange operator
   ENCUT4O =  -1.0   cutoff for four orbital integrals eV
   LMAXFOCK=     4    L truncation for augmentation on plane wave grid
   LMAXFOCKAE=  -1    L truncation for all-electron charge restoration on plane wave grid
   NMAXFOCKAE=   1    number of basis functions for all-electron charge restoration
   LFOCKAEDFT=     F  apply the AE augmentation even for DFT
   NKREDX  =     1    reduce k-point grid by
   NKREDY  =     1    reduce k-point grid by
   NKREDZ  =     1    reduce k-point grid by
   SHIFTRED=     F    shift reduced grid of Gamma
   HFKIDENT=     F    idential grid for each k-point
   ODDONLY =     F    use only odd q-grid points
   EVENONLY=     F    use only even q-grid points
   HFALPHA =   -1.0000 decay constant for conv. correction
   MCALPHA =    0.0000 extent of test-charge in conv. correction in multipole expansion
   AEXX    =    0.2000 exact exchange contribution
   HFSCREEN=    0.0000 screening length (either q_TF or 0.3 A-1)
   HFSCREENC=   0.0000 screening length for correlation (either q_TF or 0.3 A-1)
   HFRCUT  =    0.0000 spherical cutoff for potential kernel
   ALDAX   =    0.8000 LDA exchange part
   AGGAX   =    0.7200 GGA exchange part
   ALDAC   =    0.1900 LDA correlation
   AGGAC   =    0.8100 GGA correlation
   ENCUTFOCK=  -1.0 apply spherical cutoff to Coloumb kernel
   NBANDSGWLOW=     1    first orbital included in HF term
   NBLOCK_FOCK=    64    blocking factor in FOCK_ACC

 Linear response parameters
   LEPSILON=     F    determine dielectric tensor
   LRPA    =     F    only Hartree local field effects (RPA)
   LNABLA  =     F    use nabla operator in PAW spheres
   LVEL    =     F    velocity operator in full k-point grid
   CSHIFT  =0.1000    complex shift for real part using Kramers Kronig
   OMEGAMAX=  -1.0    maximum frequency
   DEG_THRESHOLD= 0.2000000E-02 threshold for treating states as degnerate
   RTIME   =   -0.100 relaxation time in fs
  (WPLASMAI=    0.000 imaginary part of plasma frequency in eV, 0.658/RTIME)
   DFIELD  = 0.0000000 0.0000000 0.0000000 field for delta impulse in time
 
  Optional k-point grid parameters
   LKPOINTS_OPT  =     F    use optional k-point grid
   KPOINTS_OPT_MODE=     1    mode for optional k-point grid
 
 Orbital magnetization related:
   ORBITALMAG=     F  switch on orbital magnetization
   LCHIMAG   =     F  perturbation theory with respect to B field
   DQ        =  0.001000  dq finite difference perturbation B field
   LLRAUG    =     F  two centre corrections for induced B field
   LBONE     =     F  B-component reconstruction in AE one-centre
   LVGVCALC  =     T  calculate vGv susceptibility
   LVGVAPPL  =     F  apply vGv susceptibility instead of pGv for G=0

 Random number generation:
   RANDOM_GENERATOR = DEFAULT
   PCG_SEED         = not used


--------------------------------------------------------------------------------------------------------


 Static calculation
 charge density and potential will be updated during run
 non-spin polarized calculation
 Conjugate gradient for all bands (Freysoldt, et al. PRB 79, 241103 (2009))
 perform sub-space diagonalisation
    before iterative eigenvector-optimisation
 modified Broyden-mixing scheme, WC =      100.0
 initial mixing is a Kerker type mixing with AMIX =  0.4000 and BMIX =      1.0000
 Hartree-type preconditioning will be used
 using additional bands           14
 reciprocal scheme for non local part
 use partial core corrections
 no Harris-corrections to forces 
 use gradient corrections 
 use of overlap-Matrix (Vanderbilt PP)
 Gauss-broadening in eV      SIGMA  =   0.05


--------------------------------------------------------------------------------------------------------


  energy-cutoff  :      500.00
  volume of cell :     8000.00
      direct lattice vectors                 reciprocal lattice vectors
    20.000000000  0.000000000  0.000000000     0.050000000  0.000000000  0.000000000
     0.000000000 20.000000000  0.000000000     0.000000000  0.050000000  0.000000000
     0.000000000  0.000000000 20.000000000     0.000000000  0.000000000  0.050000000

  length of vectors
    20.000000000 20.000000000 20.000000000     0.050000000  0.050000000  0.050000000


 
 k-points in units of 2pi/SCALE and weight: Gamma-point only                        
   0.00000000  0.00000000  0.00000000       1.000
 
 k-points in reciprocal lattice and weights: Gamma-point only                        
   0.00000000  0.00000000  0.00000000       1.000
 
 position of ions in fractional coordinates (direct lattice) 
   0.60873695  0.54535890  0.51846190
   0.57952245  0.47687700  0.52696965
   0.53148150  0.45668270  0.47414050
   0.50702365  0.38659555  0.48993095
   0.47607540  0.50332975  0.45951115
   0.42831765  0.52107525  0.51188490
   0.37758685  0.56985680  0.48070185
   0.45756390  0.55333645  0.56897885
   0.57739370  0.58116385  0.49224015
   0.65773955  0.54383515  0.49057220
   0.62288585  0.56604085  0.56910020
   0.62312325  0.44088700  0.52370460
   0.56137465  0.47185510  0.57869995
   0.56067510  0.45115360  0.42707065
   0.55214355  0.35742130  0.50438610
   0.46930465  0.38540615  0.52987180
   0.48939130  0.36479600  0.44203695
   0.44706575  0.48049275  0.41647500
   0.49834500  0.54950135  0.43625795
   0.39653670  0.47649300  0.52604680
   0.40133820  0.61693830  0.46634770
   0.33686350  0.57598085  0.51680705
   0.35882220  0.54468100  0.43495180
   0.48068865  0.58024140  0.61485120
 
 position of ions in cartesian coordinates  (Angst):
  12.17473900 10.90717800 10.36923800
  11.59044900  9.53754000 10.53939300
  10.62963000  9.13365400  9.48281000
  10.14047300  7.73191100  9.79861900
   9.52150800 10.06659500  9.19022300
   8.56635300 10.42150500 10.23769800
   7.55173700 11.39713600  9.61403700
   9.15127800 11.06672900 11.37957700
  11.54787400 11.62327700  9.84480300
  13.15479100 10.87670300  9.81144400
  12.45771700 11.32081700 11.38200400
  12.46246500  8.81774000 10.47409200
  11.22749300  9.43710200 11.57399900
  11.21350200  9.02307200  8.54141300
  11.04287100  7.14842600 10.08772200
   9.38609300  7.70812300 10.59743600
   9.78782600  7.29592000  8.84073900
   8.94131500  9.60985500  8.32950000
   9.96690000 10.99002700  8.72515900
   7.93073400  9.52986000 10.52093600
   8.02676400 12.33876600  9.32695400
   6.73727000 11.51961700 10.33614100
   7.17644400 10.89362000  8.69903600
   9.61377300 11.60482800 12.29702400
 


--------------------------------------------------------------------------------------------------------


 k-point   1 :   0.0000 0.0000 0.0000  plane waves:  203269

 maximum and minimum number of plane-waves per node :     50840    50799

 maximum number of plane-waves:    203269
 maximum index in each direction: 
   IXMAX=   36   IYMAX=   36   IZMAX=   36
   IXMIN=  -36   IYMIN=  -36   IZMIN=  -36


 parallel 3D FFT for wavefunctions:
    minimum data exchange during FFTs selected (reduces bandwidth)
 parallel 3D FFT for charge:
    minimum data exchange during FFTs selected (reduces bandwidth)


 FFT grid for exact exchange (Hartree Fock) 
  NGX =112; NGY =112; NGZ =112

 
 Radii for the augmentation spheres in the non-local exchange
 for species   1 augmentation radius   0.874 (default was   0.699)
       energy cutoff for augmentation   2000.0
 for species   2 augmentation radius   0.650 (default was   0.520)
       energy cutoff for augmentation   2000.0
 for species   3 augmentation radius   0.886 (default was   0.709)
       energy cutoff for augmentation   2000.0

 real space projection operators:
  total allocation   :        524.18 KBytes
  max/ min on nodes  :        132.26        129.87

 Maximum index for augmentation-charges in exchange          134
  SETUP_FOCK is finished

 total amount of memory used by VASP MPI-rank0   239785. kBytes
=======================================================================

   base      :      30000. kBytes
   nonl-proj :      29279. kBytes
   fftplans  :      75720. kBytes
   grid      :      92179. kBytes
   one-center:         18. kBytes
   HF        :          9. kBytes
   nonlr-proj:        373. kBytes
   wavefun   :      12207. kBytes
 
     INWAV:  cpu time      0.0000: real time      0.0000
 Broyden mixing: mesh for mixing (old mesh)
   NGX = 73   NGY = 73   NGZ = 73
  (NGX  =300   NGY  =300   NGZ  =300)
  gives a total of 389017 points

 initial charge density was supplied:
 charge density of overlapping atoms calculated
 number of electron      52.0000000 magnetization 
 keeping initial charge density in first step


--------------------------------------------------------------------------------------------------------


 Maximum index for augmentation-charges          346 (set IRDMAX)


--------------------------------------------------------------------------------------------------------


    FEWALD:  cpu time      0.0004: real time      0.0005


--------------------------------------- Ionic step        1  -------------------------------------------




--------------------------------------- Iteration      1(   1)  ---------------------------------------


    POTLOK:  cpu time      0.3983: real time      0.4019
    SETDIJ:  cpu time      0.0042: real time      0.0042
    TRIAL :  cpu time      0.9917: real time      1.0018
    CORREC:  cpu time      0.0017: real time      0.0018
    --------------------------------------------
      LOOP:  cpu time      1.4005: real time      1.4245

 eigenvalue-minimisations  :    88
 total energy-change (2. order) : 0.7034970E+03  (-0.6735343E+03)
 number of electron      52.0000000 magnetization 
 augmentation part       52.0000000 magnetization 

 DIPCOR: dipole corrections for dipol
 direction  1 min pos     1, direction  2 min pos     1, direction  3 min pos     1,
 dipolmoment           0.000008     -0.000008     -0.000033 electrons x Angstroem
 Tr[quadrupol]        44.161816

 energy correction for charged system         0.000000 eV
 dipol+quadrupol energy correction           -0.000000 eV
 added-field ion interaction          0.000003 eV  (added to PSCEN)


 Free energy of the ion-electron system (eV)
  ---------------------------------------------------
  alpha Z        PSCENC =         1.44550676
  Ewald energy   TEWEN  =      4270.00355765
  -Hartree energ DENC   =     -5316.54695080
  -exchange      EXHF   =         0.00000000
  -V(xc)+E(xc)   XCENC  =       159.89965396
  PAW double counting   =      1105.11951419    -1276.24992156
  entropy T*S    EENTRO =        -0.00006805
  eigenvalues    EBANDS =       147.04827738
  atomic energy  EATOM  =      1612.77738675
  ---------------------------------------------------
  free energy    TOTEN  =       703.49695629 eV

  energy without entropy =      703.49702434  energy(sigma->0) =      703.49699031
  exchange ACFDT corr.  =         0.00000000  see jH, gK, PRB 81, 115126


--------------------------------------------------------------------------------------------------------




--------------------------------------- Iteration      1(   2)  ---------------------------------------


    TRIAL :  cpu time      1.5020: real time      1.5149
    CORREC:  cpu time      0.0009: real time      0.0010
    --------------------------------------------
      LOOP:  cpu time      1.5031: real time      1.5162

 eigenvalue-minimisations  :   160
 total energy-change (2. order) :-0.2283876E+03  (-0.2177414E+03)
 number of electron      52.0000000 magnetization 
 augmentation part       52.0000000 magnetization 

 DIPCOR: dipole corrections for dipol
 direction  1 min pos     1, direction  2 min pos     1, direction  3 min pos     1,
 dipolmoment           0.000008     -0.000008     -0.000033 electrons x Angstroem
 Tr[quadrupol]        44.161816

 energy correction for charged system         0.000000 eV
 dipol+quadrupol energy correction           -0.000000 eV
 added-field ion interaction          0.000003 eV  (added to PSCEN)


 Free energy of the ion-electron system (eV)
  ---------------------------------------------------
  alpha Z        PSCENC =         1.44550676
  Ewald energy   TEWEN  =      4270.00355765
  -Hartree energ DENC   =     -5316.54695080
  -exchange      EXHF   =         0.00000000
  -V(xc)+E(xc)   XCENC  =       159.89965396
  PAW double counting   =      1105.11951419    -1276.24992156
  entropy T*S    EENTRO =        -0.00108355
  eigenvalues    EBANDS =       -81.33827787
  atomic energy  EATOM  =      1612.77738675
  ---------------------------------------------------
  free energy    TOTEN  =       475.10938553 eV

  energy without entropy =      475.11046908  energy(sigma->0) =      475.10992730
  exchange ACFDT corr.  =         0.00000000  see jH, gK, PRB 81, 115126


--------------------------------------------------------------------------------------------------------




--------------------------------------- Iteration      1(   3)  ---------------------------------------


    TRIAL :  cpu time      1.5073: real time      1.5217
    CORREC:  cpu time      0.0012: real time      0.0012
    --------------------------------------------
      LOOP:  cpu time      1.5087: real time      1.5230

 eigenvalue-minimisations  :   160
 total energy-change (2. order) :-0.2916063E+03  (-0.2684104E+03)
 number of electron      52.0000000 magnetization 
 augmentation part       52.0000000 magnetization 

 DIPCOR: dipole corrections for dipol
 direction  1 min pos     1, direction  2 min pos     1, direction  3 min pos     1,
 dipolmoment           0.000008     -0.000008     -0.000033 electrons x Angstroem
 Tr[quadrupol]        44.161816

 energy correction for charged system         0.000000 eV
 dipol+quadrupol energy correction           -0.000000 eV
 added-field ion interaction          0.000003 eV  (added to PSCEN)


 Free energy of the ion-electron system (eV)
  ---------------------------------------------------
  alpha Z        PSCENC =         1.44550676
  Ewald energy   TEWEN  =      4270.00355765
  -Hartree energ DENC   =     -5316.54695080
  -exchange      EXHF   =         0.00000000
  -V(xc)+E(xc)   XCENC  =       159.89965396
  PAW double counting   =      1105.11951419    -1276.24992156
  entropy T*S    EENTRO =        -0.04300215
  eigenvalues    EBANDS =      -372.90261754
  atomic energy  EATOM  =      1612.77738675
  ---------------------------------------------------
  free energy    TOTEN  =       183.50312727 eV

  energy without entropy =      183.54612942  energy(sigma->0) =      183.52462834
  exchange ACFDT corr.  =         0.00000000  see jH, gK, PRB 81, 115126


--------------------------------------------------------------------------------------------------------




--------------------------------------- Iteration      1(   4)  ---------------------------------------


    TRIAL :  cpu time      1.5000: real time      1.5131
    CORREC:  cpu time      0.0010: real time      0.0010
    --------------------------------------------
      LOOP:  cpu time      1.5011: real time      1.5142

 eigenvalue-minimisations  :   160
 total energy-change (2. order) :-0.2511086E+03  (-0.2360744E+03)
 number of electron      52.0000000 magnetization 
 augmentation part       52.0000000 magnetization 

 DIPCOR: dipole corrections for dipol
 direction  1 min pos     1, direction  2 min pos     1, direction  3 min pos     1,
 dipolmoment           0.000008     -0.000008     -0.000033 electrons x Angstroem
 Tr[quadrupol]        44.161816

 energy correction for charged system         0.000000 eV
 dipol+quadrupol energy correction           -0.000000 eV
 added-field ion interaction          0.000003 eV  (added to PSCEN)


 Free energy of the ion-electron system (eV)
  ---------------------------------------------------
  alpha Z        PSCENC =         1.44550676
  Ewald energy   TEWEN  =      4270.00355765
  -Hartree energ DENC   =     -5316.54695080
  -exchange      EXHF   =         0.00000000
  -V(xc)+E(xc)   XCENC  =       159.89965396
  PAW double counting   =      1105.11951419    -1276.24992156
  entropy T*S    EENTRO =        -0.00017253
  eigenvalues    EBANDS =      -624.05409471
  atomic energy  EATOM  =      1612.77738675
  ---------------------------------------------------
  free energy    TOTEN  =       -67.60552028 eV

  energy without entropy =      -67.60534775  energy(sigma->0) =      -67.60543402
  exchange ACFDT corr.  =         0.00000000  see jH, gK, PRB 81, 115126


--------------------------------------------------------------------------------------------------------




--------------------------------------- Iteration      1(   5)  ---------------------------------------


    POTLOK:  cpu time      0.8028: real time      0.8072
    SETDIJ:  cpu time      0.0022: real time      0.0022
    TRIAL :  cpu time      6.4835: real time      6.5341
    CORREC:  cpu time      0.0004: real time      0.0004
    CHARGE:  cpu time      0.1125: real time      0.1137
    --------------------------------------------
      LOOP:  cpu time      7.4016: real time      7.4577

 eigenvalue-minimisations  :   160
 total energy-change (2. order) : 0.8465817E+01  (-0.1578637E+03)
 number of electron      51.9999996 magnetization 
 augmentation part        1.3588598 magnetization 

 DIPCOR: dipole corrections for dipol
 direction  1 min pos     1, direction  2 min pos     1, direction  3 min pos     1,
 dipolmoment           0.000008     -0.000008     -0.000033 electrons x Angstroem
 Tr[quadrupol]        44.161816

 energy correction for charged system         0.000000 eV
 dipol+quadrupol energy correction           -0.000000 eV
 added-field ion interaction          0.000003 eV  (added to PSCEN)


 Free energy of the ion-electron system (eV)
  ---------------------------------------------------
  alpha Z        PSCENC =         1.44550676
  Ewald energy   TEWEN  =      4270.00355765
  -Hartree energ DENC   =     -5316.54695080
  -exchange      EXHF   =        71.45467592
  -V(xc)+E(xc)   XCENC  =       127.54259986
  PAW double counting   =      1130.20103026    -1137.65552453
  entropy T*S    EENTRO =        -0.00000000
  eigenvalues    EBANDS =      -818.36198500
  atomic energy  EATOM  =      1612.77738675
  ---------------------------------------------------
  free energy    TOTEN  =       -59.13970313 eV

  energy without entropy =      -59.13970313  energy(sigma->0) =      -59.13970313
  exchange ACFDT corr.  =        -0.00028609  see jH, gK, PRB 81, 115126


--------------------------------------------------------------------------------------------------------




--------------------------------------- Iteration      1(   6)  ---------------------------------------


    POTLOK:  cpu time      1.5599: real time      1.5664
    SETDIJ:  cpu time      0.0024: real time      0.0024
    TRIAL :  cpu time      5.1625: real time      5.1982
    CORREC:  cpu time      0.0002: real time      0.0002
    CHARGE:  cpu time      0.1106: real time      0.1118
    --------------------------------------------
      LOOP:  cpu time      6.8359: real time      6.8793

 eigenvalue-minimisations  :     0
 total energy-change (2. order) : 0.1423369E+02  (-0.2486744E+03)
 number of electron      51.9999997 magnetization 
 augmentation part        1.3405895 magnetization 

 DIPCOR: dipole corrections for dipol
 direction  1 min pos     1, direction  2 min pos     1, direction  3 min pos     1,
 dipolmoment           0.789374      0.118221     -0.193686 electrons x Angstroem
 Tr[quadrupol]       397.308777

 energy correction for charged system         0.000000 eV
 dipol+quadrupol energy correction           -0.002543 eV
 added-field ion interaction          0.030900 eV  (added to PSCEN)


 Free energy of the ion-electron system (eV)
  ---------------------------------------------------
  alpha Z        PSCENC =         1.47386050
  Ewald energy   TEWEN  =      4270.00355765
  -Hartree energ DENC   =     -4877.31492131
  -exchange      EXHF   =        98.90322315
  -V(xc)+E(xc)   XCENC  =       130.31496568
  PAW double counting   =      3820.61668795    -3830.25387122
  entropy T*S    EENTRO =        -0.00000000
  eigenvalues    EBANDS =     -1271.42690342
  atomic energy  EATOM  =      1612.77738675
  ---------------------------------------------------
  free energy    TOTEN  =       -44.90601428 eV

  energy without entropy =      -44.90601428  energy(sigma->0) =      -44.90601428
  exchange ACFDT corr.  =        -0.00000000  see jH, gK, PRB 81, 115126


--------------------------------------------------------------------------------------------------------




--------------------------------------- Iteration      1(   7)  ---------------------------------------


    POTLOK:  cpu time      0.9073: real time      0.9111
    SETDIJ:  cpu time      0.0024: real time      0.0024
    TRIAL :  cpu time      5.1764: real time      5.2110
    CORREC:  cpu time      0.0003: real time      0.0004
    CHARGE:  cpu time      0.1106: real time      0.1114
    --------------------------------------------
      LOOP:  cpu time      6.1972: real time      6.2365

 eigenvalue-minimisations  :     0
 total energy-change (2. order) :-0.8641980E+02  (-0.2655530E+02)
 number of electron      51.9999997 magnetization 
 augmentation part        1.2086779 magnetization 

 DIPCOR: dipole corrections for dipol
 direction  1 min pos     1, direction  2 min pos     1, direction  3 min pos     1,
 dipolmoment           0.607396      0.541395      0.968847 electrons x Angstroem
 Tr[quadrupol]        89.719006

 energy correction for charged system         0.000000 eV
 dipol+quadrupol energy correction           -0.006034 eV
 added-field ion interaction         -0.093602 eV  (added to PSCEN)


 Free energy of the ion-electron system (eV)
  ---------------------------------------------------
  alpha Z        PSCENC =         1.34586748
  Ewald energy   TEWEN  =      4270.00355765
  -Hartree energ DENC   =     -5526.66496190
  -exchange      EXHF   =       106.85101262
  -V(xc)+E(xc)   XCENC  =       137.32358757
  PAW double counting   =      4141.19441639    -4150.49620130
  entropy T*S    EENTRO =        -0.00000000
  eigenvalues    EBANDS =      -723.66047591
  atomic energy  EATOM  =      1612.77738675
  ---------------------------------------------------
  free energy    TOTEN  =      -131.32581065 eV

  energy without entropy =     -131.32581065  energy(sigma->0) =     -131.32581065
  exchange ACFDT corr.  =        -0.00000000  see jH, gK, PRB 81, 115126


--------------------------------------------------------------------------------------------------------




--------------------------------------- Iteration      1(   8)  ---------------------------------------


    POTLOK:  cpu time      0.9059: real time      0.9100
    SETDIJ:  cpu time      0.0031: real time      0.0031
    TRIAL :  cpu time      5.1661: real time      5.1999
    CORREC:  cpu time      0.0002: real time      0.0002
    CHARGE:  cpu time      0.1104: real time      0.1114
    --------------------------------------------
      LOOP:  cpu time      6.1858: real time      6.2248

 eigenvalue-minimisations  :     0
 total energy-change (2. order) :-0.9916701E+01  (-0.1914583E+02)
 number of electron      51.9999997 magnetization 
 augmentation part        1.2321312 magnetization 

 DIPCOR: dipole corrections for dipol
 direction  1 min pos     1, direction  2 min pos     1, direction  3 min pos     1,
 dipolmoment           0.326413      0.391250      0.718872 electrons x Angstroem
 Tr[quadrupol]        97.165807

 energy correction for charged system         0.000000 eV
 dipol+quadrupol energy correction           -0.002927 eV
 added-field ion interaction         -0.072225 eV  (added to PSCEN)


 Free energy of the ion-electron system (eV)
  ---------------------------------------------------
  alpha Z        PSCENC =         1.37035200
  Ewald energy   TEWEN  =      4270.00355765
  -Hartree energ DENC   =     -5414.41455694
  -exchange      EXHF   =       104.37706872
  -V(xc)+E(xc)   XCENC  =       133.90328794
  PAW double counting   =      4021.01047197    -4029.58875523
  entropy T*S    EENTRO =        -0.00000000
  eigenvalues    EBANDS =      -840.68132427
  atomic energy  EATOM  =      1612.77738675
  ---------------------------------------------------
  free energy    TOTEN  =      -141.24251142 eV

  energy without entropy =     -141.24251142  energy(sigma->0) =     -141.24251142
  exchange ACFDT corr.  =        -0.00000000  see jH, gK, PRB 81, 115126


--------------------------------------------------------------------------------------------------------




--------------------------------------- Iteration      1(   9)  ---------------------------------------


    POTLOK:  cpu time      0.8506: real time      0.8543
    SETDIJ:  cpu time      0.0063: real time      0.0063
    TRIAL :  cpu time      5.1483: real time      5.1823
    CORREC:  cpu time      0.0001: real time      0.0002
    CHARGE:  cpu time      0.1104: real time      0.1113
    --------------------------------------------
      LOOP:  cpu time      6.1160: real time      6.1652

 eigenvalue-minimisations  :     0
 total energy-change (2. order) :-0.9585540E+01  (-0.4505889E+01)
 number of electron      51.9999997 magnetization 
 augmentation part        1.2659867 magnetization 

 DIPCOR: dipole corrections for dipol
 direction  1 min pos     1, direction  2 min pos     1, direction  3 min pos     1,
 dipolmoment           0.244668      0.352843      0.616770 electrons x Angstroem
 Tr[quadrupol]        43.928215

 energy correction for charged system         0.000000 eV
 dipol+quadrupol energy correction           -0.002129 eV
 added-field ion interaction         -0.063851 eV  (added to PSCEN)


 Free energy of the ion-electron system (eV)
  ---------------------------------------------------
  alpha Z        PSCENC =         1.37952327
  Ewald energy   TEWEN  =      4270.00355765
  -Hartree energ DENC   =     -5540.86811767
  -exchange      EXHF   =       107.04833831
  -V(xc)+E(xc)   XCENC  =       136.46877499
  PAW double counting   =      4063.17843297    -4071.80996491
  entropy T*S    EENTRO =        -0.00000000
  eigenvalues    EBANDS =      -729.00598254
  atomic energy  EATOM  =      1612.77738675
  ---------------------------------------------------
  free energy    TOTEN  =      -150.82805117 eV

  energy without entropy =     -150.82805117  energy(sigma->0) =     -150.82805117
  exchange ACFDT corr.  =        -0.00000000  see jH, gK, PRB 81, 115126


--------------------------------------------------------------------------------------------------------




--------------------------------------- Iteration      1(  10)  ---------------------------------------


    POTLOK:  cpu time      0.8573: real time      0.8607
    SETDIJ:  cpu time      0.0023: real time      0.0023
    TRIAL :  cpu time      5.1596: real time      5.1933
    CORREC:  cpu time      0.0002: real time      0.0004
    CHARGE:  cpu time      0.1105: real time      0.1113
    --------------------------------------------
      LOOP:  cpu time      6.1300: real time      6.1681

 eigenvalue-minimisations  :     0
 total energy-change (2. order) :-0.1873972E+01  (-0.1659789E+01)
 number of electron      51.9999997 magnetization 
 augmentation part        1.2864357 magnetization 

 DIPCOR: dipole corrections for dipol
 direction  1 min pos     1, direction  2 min pos     1, direction  3 min pos     1,
 dipolmoment           0.305821      0.355135      0.661731 electrons x Angstroem
 Tr[quadrupol]        36.351246

 energy correction for charged system         0.000000 eV
 dipol+quadrupol energy correction           -0.002479 eV
 added-field ion interaction         -0.066068 eV  (added to PSCEN)


 Free energy of the ion-electron system (eV)
  ---------------------------------------------------
  alpha Z        PSCENC =         1.37695700
  Ewald energy   TEWEN  =      4270.00355765
  -Hartree energ DENC   =     -5572.65021505
  -exchange      EXHF   =       108.25474270
  -V(xc)+E(xc)   XCENC  =       137.82099594
  PAW double counting   =      4052.81410694    -4061.57489657
  entropy T*S    EENTRO =        -0.00000000
  eigenvalues    EBANDS =      -701.52465864
  atomic energy  EATOM  =      1612.77738675
  ---------------------------------------------------
  free energy    TOTEN  =      -152.70202328 eV

  energy without entropy =     -152.70202328  energy(sigma->0) =     -152.70202328
  exchange ACFDT corr.  =        -0.00000000  see jH, gK, PRB 81, 115126


--------------------------------------------------------------------------------------------------------




--------------------------------------- Iteration      1(  11)  ---------------------------------------


    POTLOK:  cpu time      0.8561: real time      0.8597
    SETDIJ:  cpu time      0.0023: real time      0.0023
    TRIAL :  cpu time      5.1619: real time      5.1961
    CORREC:  cpu time      0.0003: real time      0.0003
    CHARGE:  cpu time      0.1103: real time      0.1114
    --------------------------------------------
      LOOP:  cpu time      6.1311: real time      6.1699

 eigenvalue-minimisations  :     0
 total energy-change (2. order) :-0.1001526E+01  (-0.1055278E+01)
 number of electron      51.9999997 magnetization 
 augmentation part        1.2939938 magnetization 

 DIPCOR: dipole corrections for dipol
 direction  1 min pos     1, direction  2 min pos     1, direction  3 min pos     1,
 dipolmoment           0.301211      0.368257      0.697790 electrons x Angstroem
 Tr[quadrupol]        34.204073

 energy correction for charged system         0.000000 eV
 dipol+quadrupol energy correction           -0.002689 eV
 added-field ion interaction         -0.069901 eV  (added to PSCEN)


 Free energy of the ion-electron system (eV)
  ---------------------------------------------------
  alpha Z        PSCENC =         1.37291341
  Ewald energy   TEWEN  =      4270.00355765
  -Hartree energ DENC   =     -5577.08634270
  -exchange      EXHF   =       108.53864431
  -V(xc)+E(xc)   XCENC  =       138.12915517
  PAW double counting   =      4027.46411523    -4036.29253954
  entropy T*S    EENTRO =        -0.00000000
  eigenvalues    EBANDS =      -698.61043915
  atomic energy  EATOM  =      1612.77738675
  ---------------------------------------------------
  free energy    TOTEN  =      -153.70354888 eV

  energy without entropy =     -153.70354888  energy(sigma->0) =     -153.70354888
  exchange ACFDT corr.  =        -0.00000000  see jH, gK, PRB 81, 115126


--------------------------------------------------------------------------------------------------------




--------------------------------------- Iteration      1(  12)  ---------------------------------------


    POTLOK:  cpu time      0.8552: real time      0.8587
    SETDIJ:  cpu time      0.0024: real time      0.0024
    TRIAL :  cpu time      5.1859: real time      5.2155
    CORREC:  cpu time      0.0002: real time      0.0002
    CHARGE:  cpu time      0.1107: real time      0.1116
    --------------------------------------------
      LOOP:  cpu time      6.1545: real time      6.1885

 eigenvalue-minimisations  :     0
 total energy-change (2. order) :-0.6535733E+00  (-0.3577772E+00)
 number of electron      51.9999997 magnetization 
 augmentation part        1.2958521 magnetization 

 DIPCOR: dipole corrections for dipol
 direction  1 min pos     1, direction  2 min pos     1, direction  3 min pos     1,
 dipolmoment           0.288538      0.381879      0.712694 electrons x Angstroem
 Tr[quadrupol]        31.806692

 energy correction for charged system         0.000000 eV
 dipol+quadrupol energy correction           -0.002778 eV
 added-field ion interaction         -0.072221 eV  (added to PSCEN)


 Free energy of the ion-electron system (eV)
  ---------------------------------------------------
  alpha Z        PSCENC =         1.37050397
  Ewald energy   TEWEN  =      4270.00355765
  -Hartree energ DENC   =     -5575.75623186
  -exchange      EXHF   =       108.48276676
  -V(xc)+E(xc)   XCENC  =       138.03454708
  PAW double counting   =      4006.41028979    -4015.25681081
  entropy T*S    EENTRO =        -0.00000000
  eigenvalues    EBANDS =      -700.42313152
  atomic energy  EATOM  =      1612.77738675
  ---------------------------------------------------
  free energy    TOTEN  =      -154.35712218 eV

  energy without entropy =     -154.35712218  energy(sigma->0) =     -154.35712218
  exchange ACFDT corr.  =        -0.00000000  see jH, gK, PRB 81, 115126


--------------------------------------------------------------------------------------------------------




--------------------------------------- Iteration      1(  13)  ---------------------------------------


    POTLOK:  cpu time      0.8537: real time      0.8571
    SETDIJ:  cpu time      0.0041: real time      0.0041
    TRIAL :  cpu time      5.1684: real time      5.1975
    CORREC:  cpu time      0.0003: real time      0.0002
    CHARGE:  cpu time      0.1108: real time      0.1117
    --------------------------------------------
      LOOP:  cpu time      6.1378: real time      6.1731

 eigenvalue-minimisations  :     0
 total energy-change (2. order) :-0.1941283E+00  (-0.1045573E+00)
 number of electron      51.9999997 magnetization 
 augmentation part        1.2969189 magnetization 

 DIPCOR: dipole corrections for dipol
 direction  1 min pos     1, direction  2 min pos     1, direction  3 min pos     1,
 dipolmoment           0.281883      0.380677      0.704967 electrons x Angstroem
 Tr[quadrupol]        31.099913

 energy correction for charged system         0.000000 eV
 dipol+quadrupol energy correction           -0.002719 eV
 added-field ion interaction         -0.071692 eV  (added to PSCEN)


 Free energy of the ion-electron system (eV)
  ---------------------------------------------------
  alpha Z        PSCENC =         1.37109198
  Ewald energy   TEWEN  =      4270.00355765
  -Hartree energ DENC   =     -5574.35202886
  -exchange      EXHF   =       108.41763523
  -V(xc)+E(xc)   XCENC  =       137.94839032
  PAW double counting   =      3996.67224878    -4005.52634219
  entropy T*S    EENTRO =        -0.00000000
  eigenvalues    EBANDS =      -701.86319019
  atomic energy  EATOM  =      1612.77738675
  ---------------------------------------------------
  free energy    TOTEN  =      -154.55125052 eV

  energy without entropy =     -154.55125052  energy(sigma->0) =     -154.55125052
  exchange ACFDT corr.  =        -0.00000000  see jH, gK, PRB 81, 115126


--------------------------------------------------------------------------------------------------------




--------------------------------------- Iteration      1(  14)  ---------------------------------------


    POTLOK:  cpu time      0.8542: real time      0.8574
    SETDIJ:  cpu time      0.0033: real time      0.0033
    TRIAL :  cpu time      5.1667: real time      5.1958
    CORREC:  cpu time      0.0003: real time      0.0004
    CHARGE:  cpu time      0.1105: real time      0.1112
    --------------------------------------------
      LOOP:  cpu time      6.1351: real time      6.1682

 eigenvalue-minimisations  :     0
 total energy-change (2. order) :-0.6037936E-01  (-0.5303919E-01)
 number of electron      51.9999997 magnetization 
 augmentation part        1.2975137 magnetization 

 DIPCOR: dipole corrections for dipol
 direction  1 min pos     1, direction  2 min pos     1, direction  3 min pos     1,
 dipolmoment           0.276680      0.372578      0.688385 electrons x Angstroem
 Tr[quadrupol]        30.881123

 energy correction for charged system         0.000000 eV
 dipol+quadrupol energy correction           -0.002598 eV
 added-field ion interaction         -0.070014 eV  (added to PSCEN)


 Free energy of the ion-electron system (eV)
  ---------------------------------------------------
  alpha Z        PSCENC =         1.37289099
  Ewald energy   TEWEN  =      4270.00355765
  -Hartree energ DENC   =     -5575.38811034
  -exchange      EXHF   =       108.43357206
  -V(xc)+E(xc)   XCENC  =       137.96600594
  PAW double counting   =      3996.22909298    -4005.09334817
  entropy T*S    EENTRO =        -0.00000000
  eigenvalues    EBANDS =      -700.91267774
  atomic energy  EATOM  =      1612.77738675
  ---------------------------------------------------
  free energy    TOTEN  =      -154.61162988 eV

  energy without entropy =     -154.61162988  energy(sigma->0) =     -154.61162988
  exchange ACFDT corr.  =        -0.00000000  see jH, gK, PRB 81, 115126


--------------------------------------------------------------------------------------------------------




--------------------------------------- Iteration      1(  15)  ---------------------------------------


    POTLOK:  cpu time      0.8557: real time      0.8589
    SETDIJ:  cpu time      0.0025: real time      0.0025
    TRIAL :  cpu time      5.1589: real time      5.1882
    CORREC:  cpu time      0.0002: real time      0.0002
    CHARGE:  cpu time      0.1109: real time      0.1118
    --------------------------------------------
      LOOP:  cpu time      6.1285: real time      6.1619

 eigenvalue-minimisations  :     0
 total energy-change (2. order) :-0.3623835E-01  (-0.2907907E-01)
 number of electron      51.9999997 magnetization 
 augmentation part        1.2974487 magnetization 

 DIPCOR: dipole corrections for dipol
 direction  1 min pos     1, direction  2 min pos     1, direction  3 min pos     1,
 dipolmoment           0.274420      0.366086      0.676564 electrons x Angstroem
 Tr[quadrupol]        30.742099

 energy correction for charged system         0.000000 eV
 dipol+quadrupol energy correction           -0.002515 eV
 added-field ion interaction         -0.068740 eV  (added to PSCEN)


 Free energy of the ion-electron system (eV)
  ---------------------------------------------------
  alpha Z        PSCENC =         1.37424901
  Ewald energy   TEWEN  =      4270.00355765
  -Hartree energ DENC   =     -5576.44892805
  -exchange      EXHF   =       108.46139433
  -V(xc)+E(xc)   XCENC  =       137.99600795
  PAW double counting   =      3998.68170637    -4007.55316437
  entropy T*S    EENTRO =        -0.00000000
  eigenvalues    EBANDS =      -699.94007787
  atomic energy  EATOM  =      1612.77738675
  ---------------------------------------------------
  free energy    TOTEN  =      -154.64786822 eV

  energy without entropy =     -154.64786822  energy(sigma->0) =     -154.64786822
  exchange ACFDT corr.  =        -0.00000000  see jH, gK, PRB 81, 115126


--------------------------------------------------------------------------------------------------------




--------------------------------------- Iteration      1(  16)  ---------------------------------------


    POTLOK:  cpu time      0.8552: real time      0.8585
    SETDIJ:  cpu time      0.0022: real time      0.0022
    TRIAL :  cpu time      5.1773: real time      5.2066
    CORREC:  cpu time      0.0002: real time      0.0002
    CHARGE:  cpu time      0.1100: real time      0.1114
    --------------------------------------------
      LOOP:  cpu time      6.1452: real time      6.1793

 eigenvalue-minimisations  :     0
 total energy-change (2. order) :-0.2048119E-01  (-0.1385549E-01)
 number of electron      51.9999997 magnetization 
 augmentation part        1.2970859 magnetization 

 DIPCOR: dipole corrections for dipol
 direction  1 min pos     1, direction  2 min pos     1, direction  3 min pos     1,
 dipolmoment           0.273858      0.363018      0.671212 electrons x Angstroem
 Tr[quadrupol]        30.719828

 energy correction for charged system         0.000000 eV
 dipol+quadrupol energy correction           -0.002478 eV
 added-field ion interaction         -0.068144 eV  (added to PSCEN)


 Free energy of the ion-electron system (eV)
  ---------------------------------------------------
  alpha Z        PSCENC =         1.37488192
  Ewald energy   TEWEN  =      4270.00355765
  -Hartree energ DENC   =     -5576.38563666
  -exchange      EXHF   =       108.46423387
  -V(xc)+E(xc)   XCENC  =       137.99573859
  PAW double counting   =      4000.83804430    -4009.71144197
  entropy T*S    EENTRO =        -0.00000000
  eigenvalues    EBANDS =      -700.02511387
  atomic energy  EATOM  =      1612.77738675
  ---------------------------------------------------
  free energy    TOTEN  =      -154.66834942 eV

  energy without entropy =     -154.66834942  energy(sigma->0) =     -154.66834942
  exchange ACFDT corr.  =        -0.00000000  see jH, gK, PRB 81, 115126


--------------------------------------------------------------------------------------------------------




--------------------------------------- Iteration      1(  17)  ---------------------------------------


    POTLOK:  cpu time      0.8641: real time      0.8674
    SETDIJ:  cpu time      0.0022: real time      0.0022
    TRIAL :  cpu time      5.1774: real time      5.2068
    CORREC:  cpu time      0.0003: real time      0.0003
    CHARGE:  cpu time      0.1105: real time      0.1114
    --------------------------------------------
      LOOP:  cpu time      6.1548: real time      6.1884

 eigenvalue-minimisations  :     0
 total energy-change (2. order) :-0.9893359E-02  (-0.6488052E-02)
 number of electron      51.9999997 magnetization 
 augmentation part        1.2968930 magnetization 

 DIPCOR: dipole corrections for dipol
 direction  1 min pos     1, direction  2 min pos     1, direction  3 min pos     1,
 dipolmoment           0.273241      0.362370      0.669594 electrons x Angstroem
 Tr[quadrupol]        30.752027

 energy correction for charged system         0.000000 eV
 dipol+quadrupol energy correction           -0.002467 eV
 added-field ion interaction         -0.067991 eV  (added to PSCEN)


 Free energy of the ion-electron system (eV)
  ---------------------------------------------------
  alpha Z        PSCENC =         1.37504598
  Ewald energy   TEWEN  =      4270.00355765
  -Hartree energ DENC   =     -5575.83780835
  -exchange      EXHF   =       108.45334767
  -V(xc)+E(xc)   XCENC  =       137.97968437
  PAW double counting   =      4002.29295571    -4011.16547949
  entropy T*S    EENTRO =        -0.00000000
  eigenvalues    EBANDS =      -700.55693306
  atomic energy  EATOM  =      1612.77738675
  ---------------------------------------------------
  free energy    TOTEN  =      -154.67824278 eV

  energy without entropy =     -154.67824278  energy(sigma->0) =     -154.67824278
  exchange ACFDT corr.  =        -0.00000000  see jH, gK, PRB 81, 115126


--------------------------------------------------------------------------------------------------------




--------------------------------------- Iteration      1(  18)  ---------------------------------------


    POTLOK:  cpu time      0.8538: real time      0.8572
    SETDIJ:  cpu time      0.0025: real time      0.0025
    TRIAL :  cpu time      5.1977: real time      5.2271
    CORREC:  cpu time      0.0002: real time      0.0003
    CHARGE:  cpu time      0.1111: real time      0.1117
    --------------------------------------------
      LOOP:  cpu time      6.1655: real time      6.1992

 eigenvalue-minimisations  :     0
 total energy-change (2. order) :-0.4989607E-02  (-0.3412844E-02)
 number of electron      51.9999997 magnetization 
 augmentation part        1.2968917 magnetization 

 DIPCOR: dipole corrections for dipol
 direction  1 min pos     1, direction  2 min pos     1, direction  3 min pos     1,
 dipolmoment           0.272274      0.362374      0.668838 electrons x Angstroem
 Tr[quadrupol]        30.764567

 energy correction for charged system         0.000000 eV
 dipol+quadrupol energy correction           -0.002461 eV
 added-field ion interaction         -0.067953 eV  (added to PSCEN)


 Free energy of the ion-electron system (eV)
  ---------------------------------------------------
  alpha Z        PSCENC =         1.37508936
  Ewald energy   TEWEN  =      4270.00355765
  -Hartree energ DENC   =     -5575.60428154
  -exchange      EXHF   =       108.44766658
  -V(xc)+E(xc)   XCENC  =       137.97120995
  PAW double counting   =      4003.53095916    -4012.40278620
  entropy T*S    EENTRO =        -0.00000000
  eigenvalues    EBANDS =      -700.78203410
  atomic energy  EATOM  =      1612.77738675
  ---------------------------------------------------
  free energy    TOTEN  =      -154.68323238 eV

  energy without entropy =     -154.68323238  energy(sigma->0) =     -154.68323238
  exchange ACFDT corr.  =        -0.00000000  see jH, gK, PRB 81, 115126


--------------------------------------------------------------------------------------------------------




--------------------------------------- Iteration      1(  19)  ---------------------------------------


    POTLOK:  cpu time      0.8526: real time      0.8558
    SETDIJ:  cpu time      0.0025: real time      0.0025
    TRIAL :  cpu time      5.2056: real time      5.2351
    CORREC:  cpu time      0.0002: real time      0.0001
    CHARGE:  cpu time      0.1107: real time      0.1116
    --------------------------------------------
      LOOP:  cpu time      6.1719: real time      6.2073

 eigenvalue-minimisations  :     0
 total energy-change (2. order) :-0.2802214E-02  (-0.1916090E-02)
 number of electron      51.9999997 magnetization 
 augmentation part        1.2969337 magnetization 

 DIPCOR: dipole corrections for dipol
 direction  1 min pos     1, direction  2 min pos     1, direction  3 min pos     1,
 dipolmoment           0.271419      0.362128      0.667843 electrons x Angstroem
 Tr[quadrupol]        30.758337

 energy correction for charged system         0.000000 eV
 dipol+quadrupol energy correction           -0.002453 eV
 added-field ion interaction         -0.067880 eV  (added to PSCEN)


 Free energy of the ion-electron system (eV)
  ---------------------------------------------------
  alpha Z        PSCENC =         1.37516962
  Ewald energy   TEWEN  =      4270.00355765
  -Hartree energ DENC   =     -5575.66411388
  -exchange      EXHF   =       108.44859350
  -V(xc)+E(xc)   XCENC  =       137.97185596
  PAW double counting   =      4004.50295255    -4013.37480222
  entropy T*S    EENTRO =        -0.00000000
  eigenvalues    EBANDS =      -700.72663453
  atomic energy  EATOM  =      1612.77738675
  ---------------------------------------------------
  free energy    TOTEN  =      -154.68603460 eV

  energy without entropy =     -154.68603460  energy(sigma->0) =     -154.68603460
  exchange ACFDT corr.  =        -0.00000000  see jH, gK, PRB 81, 115126


--------------------------------------------------------------------------------------------------------




--------------------------------------- Iteration      1(  20)  ---------------------------------------


    POTLOK:  cpu time      0.8533: real time      0.8565
    SETDIJ:  cpu time      0.0022: real time      0.0022
    TRIAL :  cpu time      5.1611: real time      5.1909
    CORREC:  cpu time      0.0005: real time      0.0005
    CHARGE:  cpu time      0.1102: real time      0.1112
    --------------------------------------------
      LOOP:  cpu time      6.1275: real time      6.1616

 eigenvalue-minimisations  :     0
 total energy-change (2. order) :-0.1635872E-02  (-0.1176941E-02)
 number of electron      51.9999997 magnetization 
 augmentation part        1.2969563 magnetization 

 DIPCOR: dipole corrections for dipol
 direction  1 min pos     1, direction  2 min pos     1, direction  3 min pos     1,
 dipolmoment           0.270846      0.361724      0.666752 electrons x Angstroem
 Tr[quadrupol]        30.753618

 energy correction for charged system         0.000000 eV
 dipol+quadrupol energy correction           -0.002446 eV
 added-field ion interaction         -0.067784 eV  (added to PSCEN)


 Free energy of the ion-electron system (eV)
  ---------------------------------------------------
  alpha Z        PSCENC =         1.37527400
  Ewald energy   TEWEN  =      4270.00355765
  -Hartree energ DENC   =     -5575.73071551
  -exchange      EXHF   =       108.45015055
  -V(xc)+E(xc)   XCENC  =       137.97352097
  PAW double counting   =      4005.07937379    -4013.95135075
  entropy T*S    EENTRO =        -0.00000000
  eigenvalues    EBANDS =      -700.66486792
  atomic energy  EATOM  =      1612.77738675
  ---------------------------------------------------
  free energy    TOTEN  =      -154.68767047 eV

  energy without entropy =     -154.68767047  energy(sigma->0) =     -154.68767047
  exchange ACFDT corr.  =        -0.00000000  see jH, gK, PRB 81, 115126


--------------------------------------------------------------------------------------------------------




--------------------------------------- Iteration      1(  21)  ---------------------------------------


    POTLOK:  cpu time      0.8527: real time      0.8558
    SETDIJ:  cpu time      0.0033: real time      0.0033
    TRIAL :  cpu time      5.1659: real time      5.1955
    CORREC:  cpu time      0.0001: real time      0.0001
    CHARGE:  cpu time      0.1105: real time      0.1114
    --------------------------------------------
      LOOP:  cpu time      6.1326: real time      6.1664

 eigenvalue-minimisations  :     0
 total energy-change (2. order) :-0.1030676E-02  (-0.7570386E-03)
 number of electron      51.9999997 magnetization 
 augmentation part        1.2969660 magnetization 

 DIPCOR: dipole corrections for dipol
 direction  1 min pos     1, direction  2 min pos     1, direction  3 min pos     1,
 dipolmoment           0.270496      0.361349      0.665856 electrons x Angstroem
 Tr[quadrupol]        30.755274

 energy correction for charged system         0.000000 eV
 dipol+quadrupol energy correction           -0.002439 eV
 added-field ion interaction         -0.067698 eV  (added to PSCEN)


 Free energy of the ion-electron system (eV)
  ---------------------------------------------------
  alpha Z        PSCENC =         1.37536620
  Ewald energy   TEWEN  =      4270.00355765
  -Hartree energ DENC   =     -5575.71592233
  -exchange      EXHF   =       108.45015725
  -V(xc)+E(xc)   XCENC  =       137.97304654
  PAW double counting   =      4005.33269585    -4014.20463968
  entropy T*S    EENTRO =        -0.00000000
  eigenvalues    EBANDS =      -700.68034936
  atomic energy  EATOM  =      1612.77738675
  ---------------------------------------------------
  free energy    TOTEN  =      -154.68870115 eV

  energy without entropy =     -154.68870115  energy(sigma->0) =     -154.68870115
  exchange ACFDT corr.  =        -0.00000000  see jH, gK, PRB 81, 115126


--------------------------------------------------------------------------------------------------------




--------------------------------------- Iteration      1(  22)  ---------------------------------------


    POTLOK:  cpu time      0.8518: real time      0.8552
    SETDIJ:  cpu time      0.0024: real time      0.0024
    TRIAL :  cpu time      5.1673: real time      5.1970
    CORREC:  cpu time      0.0003: real time      0.0003
    CHARGE:  cpu time      0.1113: real time      0.1127
    --------------------------------------------
      LOOP:  cpu time      6.1333: real time      6.1678

 eigenvalue-minimisations  :     0
 total energy-change (2. order) :-0.6740044E-03  (-0.4955780E-03)
 number of electron      51.9999997 magnetization 
 augmentation part        1.2969783 magnetization 

 DIPCOR: dipole corrections for dipol
 direction  1 min pos     1, direction  2 min pos     1, direction  3 min pos     1,
 dipolmoment           0.270248      0.361086      0.665205 electrons x Angstroem
 Tr[quadrupol]        30.759005

 energy correction for charged system         0.000000 eV
 dipol+quadrupol energy correction           -0.002435 eV
 added-field ion interaction         -0.067636 eV  (added to PSCEN)


 Free energy of the ion-electron system (eV)
  ---------------------------------------------------
  alpha Z        PSCENC =         1.37543209
  Ewald energy   TEWEN  =      4270.00355765
  -Hartree energ DENC   =     -5575.66912014
  -exchange      EXHF   =       108.44948590
  -V(xc)+E(xc)   XCENC  =       137.97189101
  PAW double counting   =      4005.41618800    -4014.28801756
  entropy T*S    EENTRO =        -0.00000000
  eigenvalues    EBANDS =      -700.72617885
  atomic energy  EATOM  =      1612.77738675
  ---------------------------------------------------
  free energy    TOTEN  =      -154.68937515 eV

  energy without entropy =     -154.68937515  energy(sigma->0) =     -154.68937515
  exchange ACFDT corr.  =        -0.00000000  see jH, gK, PRB 81, 115126


--------------------------------------------------------------------------------------------------------




--------------------------------------- Iteration      1(  23)  ---------------------------------------


    POTLOK:  cpu time      0.8524: real time      0.8553
    SETDIJ:  cpu time      0.0024: real time      0.0024
    TRIAL :  cpu time      5.1694: real time      5.1991
    CORREC:  cpu time      0.0002: real time      0.0002
    CHARGE:  cpu time      0.1103: real time      0.1112
    --------------------------------------------
      LOOP:  cpu time      6.1459: real time      6.1811

 eigenvalue-minimisations  :     0
 total energy-change (2. order) :-0.4492457E-03  (-0.3249718E-03)
 number of electron      51.9999997 magnetization 
 augmentation part        1.2969922 magnetization 

 DIPCOR: dipole corrections for dipol
 direction  1 min pos     1, direction  2 min pos     1, direction  3 min pos     1,
 dipolmoment           0.270034      0.360937      0.664748 electrons x Angstroem
 Tr[quadrupol]        30.761183

 energy correction for charged system         0.000000 eV
 dipol+quadrupol energy correction           -0.002432 eV
 added-field ion interaction         -0.067596 eV  (added to PSCEN)


 Free energy of the ion-electron system (eV)
  ---------------------------------------------------
  alpha Z        PSCENC =         1.37547560
  Ewald energy   TEWEN  =      4270.00355765
  -Hartree energ DENC   =     -5575.64302610
  -exchange      EXHF   =       108.44921278
  -V(xc)+E(xc)   XCENC  =       137.97148790
  PAW double counting   =      4005.44906504    -4014.32082938
  entropy T*S    EENTRO =        -0.00000000
  eigenvalues    EBANDS =      -700.75215464
  atomic energy  EATOM  =      1612.77738675
  ---------------------------------------------------
  free energy    TOTEN  =      -154.68982440 eV

  energy without entropy =     -154.68982440  energy(sigma->0) =     -154.68982440
  exchange ACFDT corr.  =        -0.00000000  see jH, gK, PRB 81, 115126


--------------------------------------------------------------------------------------------------------




--------------------------------------- Iteration      1(  24)  ---------------------------------------


    POTLOK:  cpu time      0.8528: real time      0.8564
    SETDIJ:  cpu time      0.0022: real time      0.0022
    TRIAL :  cpu time      5.1664: real time      5.1952
    CORREC:  cpu time      0.0003: real time      0.0003
    CHARGE:  cpu time      0.1105: real time      0.1113
    --------------------------------------------
      LOOP:  cpu time      6.1324: real time      6.1657

 eigenvalue-minimisations  :     0
 total energy-change (2. order) :-0.2968306E-03  (-0.2211902E-03)
 number of electron      51.9999997 magnetization 
 augmentation part        1.2970037 magnetization 

 DIPCOR: dipole corrections for dipol
 direction  1 min pos     1, direction  2 min pos     1, direction  3 min pos     1,
 dipolmoment           0.269851      0.360863      0.664434 electrons x Angstroem
 Tr[quadrupol]        30.761988

 energy correction for charged system         0.000000 eV
 dipol+quadrupol energy correction           -0.002430 eV
 added-field ion interaction         -0.067571 eV  (added to PSCEN)


 Free energy of the ion-electron system (eV)
  ---------------------------------------------------
  alpha Z        PSCENC =         1.37550324
  Ewald energy   TEWEN  =      4270.00355765
  -Hartree energ DENC   =     -5575.63733653
  -exchange      EXHF   =       108.44933536
  -V(xc)+E(xc)   XCENC  =       137.97148209
  PAW double counting   =      4005.46736703    -4014.33912588
  entropy T*S    EENTRO =        -0.00000000
  eigenvalues    EBANDS =      -700.75829093
  atomic energy  EATOM  =      1612.77738675
  ---------------------------------------------------
  free energy    TOTEN  =      -154.69012123 eV

  energy without entropy =     -154.69012123  energy(sigma->0) =     -154.69012123
  exchange ACFDT corr.  =        -0.00000000  see jH, gK, PRB 81, 115126


--------------------------------------------------------------------------------------------------------




--------------------------------------- Iteration      1(  25)  ---------------------------------------


    POTLOK:  cpu time      0.8519: real time      0.8551
    SETDIJ:  cpu time      0.0023: real time      0.0023
    TRIAL :  cpu time      5.1840: real time      5.2127
    CORREC:  cpu time      0.0001: real time      0.0001
    CHARGE:  cpu time      0.1103: real time      0.1112
    --------------------------------------------
      LOOP:  cpu time      6.1488: real time      6.1816

 eigenvalue-minimisations  :     0
 total energy-change (2. order) :-0.2042371E-03  (-0.1601488E-03)
 number of electron      51.9999997 magnetization 
 augmentation part        1.2970102 magnetization 

 DIPCOR: dipole corrections for dipol
 direction  1 min pos     1, direction  2 min pos     1, direction  3 min pos     1,
 dipolmoment           0.269691      0.360791      0.664186 electrons x Angstroem
 Tr[quadrupol]        30.762207

 energy correction for charged system         0.000000 eV
 dipol+quadrupol energy correction           -0.002428 eV
 added-field ion interaction         -0.067551 eV  (added to PSCEN)


 Free energy of the ion-electron system (eV)
  ---------------------------------------------------
  alpha Z        PSCENC =         1.37552482
  Ewald energy   TEWEN  =      4270.00355765
  -Hartree energ DENC   =     -5575.63798087
  -exchange      EXHF   =       108.44955145
  -V(xc)+E(xc)   XCENC  =       137.97171185
  PAW double counting   =      4005.47816261    -4014.34993300
  entropy T*S    EENTRO =        -0.00000000
  eigenvalues    EBANDS =      -700.75830672
  atomic energy  EATOM  =      1612.77738675
  ---------------------------------------------------
  free energy    TOTEN  =      -154.69032546 eV

  energy without entropy =     -154.69032546  energy(sigma->0) =     -154.69032546
  exchange ACFDT corr.  =        -0.00000000  see jH, gK, PRB 81, 115126


--------------------------------------------------------------------------------------------------------




--------------------------------------- Iteration      1(  26)  ---------------------------------------


    POTLOK:  cpu time      0.8521: real time      0.8553
    SETDIJ:  cpu time      0.0034: real time      0.0034
    TRIAL :  cpu time      5.1797: real time      5.2115
    CORREC:  cpu time      0.0001: real time      0.0002
    CHARGE:  cpu time      0.1105: real time      0.1112
    --------------------------------------------
      LOOP:  cpu time      6.1461: real time      6.1818

 eigenvalue-minimisations  :     0
 total energy-change (2. order) :-0.1470101E-03  (-0.1198752E-03)
 number of electron      51.9999997 magnetization 
 augmentation part        1.2970169 magnetization 

 DIPCOR: dipole corrections for dipol
 direction  1 min pos     1, direction  2 min pos     1, direction  3 min pos     1,
 dipolmoment           0.269570      0.360760      0.663992 electrons x Angstroem
 Tr[quadrupol]        30.762685

 energy correction for charged system         0.000000 eV
 dipol+quadrupol energy correction           -0.002427 eV
 added-field ion interaction         -0.067536 eV  (added to PSCEN)


 Free energy of the ion-electron system (eV)
  ---------------------------------------------------
  alpha Z        PSCENC =         1.37554072
  Ewald energy   TEWEN  =      4270.00355765
  -Hartree energ DENC   =     -5575.63426065
  -exchange      EXHF   =       108.44963303
  -V(xc)+E(xc)   XCENC  =       137.97165894
  PAW double counting   =      4005.48047773    -4014.35224984
  entropy T*S    EENTRO =        -0.00000000
  eigenvalues    EBANDS =      -700.76221681
  atomic energy  EATOM  =      1612.77738675
  ---------------------------------------------------
  free energy    TOTEN  =      -154.69047247 eV

  energy without entropy =     -154.69047247  energy(sigma->0) =     -154.69047247
  exchange ACFDT corr.  =        -0.00000000  see jH, gK, PRB 81, 115126


--------------------------------------------------------------------------------------------------------




--------------------------------------- Iteration      1(  27)  ---------------------------------------


    POTLOK:  cpu time      0.8566: real time      0.8598
    SETDIJ:  cpu time      0.0024: real time      0.0024
    TRIAL :  cpu time      5.1603: real time      5.1896
    CORREC:  cpu time      0.0002: real time      0.0002
    CHARGE:  cpu time      0.1104: real time      0.1114
    --------------------------------------------
      LOOP:  cpu time      6.1301: real time      6.1635

 eigenvalue-minimisations  :     0
 total energy-change (2. order) :-0.1119691E-03  (-0.9240645E-04)
 number of electron      51.9999997 magnetization 
 augmentation part        1.2970226 magnetization 

 DIPCOR: dipole corrections for dipol
 direction  1 min pos     1, direction  2 min pos     1, direction  3 min pos     1,
 dipolmoment           0.269469      0.360713      0.663836 electrons x Angstroem
 Tr[quadrupol]        30.762934

 energy correction for charged system         0.000000 eV
 dipol+quadrupol energy correction           -0.002426 eV
 added-field ion interaction         -0.067523 eV  (added to PSCEN)


 Free energy of the ion-electron system (eV)
  ---------------------------------------------------
  alpha Z        PSCENC =         1.37555447
  Ewald energy   TEWEN  =      4270.00355765
  -Hartree energ DENC   =     -5575.63217798
  -exchange      EXHF   =       108.44972571
  -V(xc)+E(xc)   XCENC  =       137.97181030
  PAW double counting   =      4005.48541373    -4014.35718752
  entropy T*S    EENTRO =        -0.00000000
  eigenvalues    EBANDS =      -700.76466755
  atomic energy  EATOM  =      1612.77738675
  ---------------------------------------------------
  free energy    TOTEN  =      -154.69058444 eV

  energy without entropy =     -154.69058444  energy(sigma->0) =     -154.69058444
  exchange ACFDT corr.  =        -0.00000000  see jH, gK, PRB 81, 115126


--------------------------------------------------------------------------------------------------------




--------------------------------------- Iteration      1(  28)  ---------------------------------------


    POTLOK:  cpu time      0.8524: real time      0.8558
    SETDIJ:  cpu time      0.0023: real time      0.0023
    TRIAL :  cpu time      5.1722: real time      5.2017
    CORREC:  cpu time      0.0002: real time      0.0002
    CHARGE:  cpu time      0.1106: real time      0.1114
    --------------------------------------------
      LOOP:  cpu time      6.1378: real time      6.1716

 eigenvalue-minimisations  :     0
 total energy-change (2. order) :-0.8453883E-04  (-0.7108352E-04)
 number of electron      51.9999997 magnetization 
 augmentation part        1.2970294 magnetization 

 DIPCOR: dipole corrections for dipol
 direction  1 min pos     1, direction  2 min pos     1, direction  3 min pos     1,
 dipolmoment           0.269417      0.360723      0.663756 electrons x Angstroem
 Tr[quadrupol]        30.763486

 energy correction for charged system         0.000000 eV
 dipol+quadrupol energy correction           -0.002425 eV
 added-field ion interaction         -0.067519 eV  (added to PSCEN)


 Free energy of the ion-electron system (eV)
  ---------------------------------------------------
  alpha Z        PSCENC =         1.37555973
  Ewald energy   TEWEN  =      4270.00355765
  -Hartree energ DENC   =     -5575.62790204
  -exchange      EXHF   =       108.44974634
  -V(xc)+E(xc)   XCENC  =       137.97168114
  PAW double counting   =      4005.49046024    -4014.36223582
  entropy T*S    EENTRO =        -0.00000000
  eigenvalues    EBANDS =      -700.76892297
  atomic energy  EATOM  =      1612.77738675
  ---------------------------------------------------
  free energy    TOTEN  =      -154.69066898 eV

  energy without entropy =     -154.69066898  energy(sigma->0) =     -154.69066898
  exchange ACFDT corr.  =        -0.00000000  see jH, gK, PRB 81, 115126


--------------------------------------------------------------------------------------------------------




--------------------------------------- Iteration      1(  29)  ---------------------------------------


    POTLOK:  cpu time      0.8532: real time      0.8563
    SETDIJ:  cpu time      0.0021: real time      0.0021
    TRIAL :  cpu time      5.1701: real time      5.1997
    CORREC:  cpu time      0.0002: real time      0.0002
    CHARGE:  cpu time      0.1104: real time      0.1113
    --------------------------------------------
      LOOP:  cpu time      6.1472: real time      6.1812

 eigenvalue-minimisations  :     0
 total energy-change (2. order) :-0.6601147E-04  (-0.5521858E-04)
 number of electron      51.9999997 magnetization 
 augmentation part        1.2970334 magnetization 

 DIPCOR: dipole corrections for dipol
 direction  1 min pos     1, direction  2 min pos     1, direction  3 min pos     1,
 dipolmoment           0.269361      0.360695      0.663680 electrons x Angstroem
 Tr[quadrupol]        30.763457

 energy correction for charged system         0.000000 eV
 dipol+quadrupol energy correction           -0.002424 eV
 added-field ion interaction         -0.067512 eV  (added to PSCEN)


 Free energy of the ion-electron system (eV)
  ---------------------------------------------------
  alpha Z        PSCENC =         1.37556699
  Ewald energy   TEWEN  =      4270.00355765
  -Hartree energ DENC   =     -5575.62890268
  -exchange      EXHF   =       108.44985891
  -V(xc)+E(xc)   XCENC  =       137.97190117
  PAW double counting   =      4005.50124767    -4014.37303275
  entropy T*S    EENTRO =        -0.00000000
  eigenvalues    EBANDS =      -700.76831870
  atomic energy  EATOM  =      1612.77738675
  ---------------------------------------------------
  free energy    TOTEN  =      -154.69073499 eV

  energy without entropy =     -154.69073499  energy(sigma->0) =     -154.69073499
  exchange ACFDT corr.  =        -0.00000000  see jH, gK, PRB 81, 115126


--------------------------------------------------------------------------------------------------------




--------------------------------------- Iteration      1(  30)  ---------------------------------------


    POTLOK:  cpu time      0.8518: real time      0.8551
    SETDIJ:  cpu time      0.0022: real time      0.0022
    TRIAL :  cpu time      5.1715: real time      5.2007
    CORREC:  cpu time      0.0002: real time      0.0004
    CHARGE:  cpu time      0.1106: real time      0.1113
    --------------------------------------------
      LOOP:  cpu time      6.1365: real time      6.1698

 eigenvalue-minimisations  :     0
 total energy-change (2. order) :-0.5054457E-04  (-0.4296115E-04)
 number of electron      51.9999997 magnetization 
 augmentation part        1.2970375 magnetization 

 DIPCOR: dipole corrections for dipol
 direction  1 min pos     1, direction  2 min pos     1, direction  3 min pos     1,
 dipolmoment           0.269345      0.360720      0.663668 electrons x Angstroem
 Tr[quadrupol]        30.763924

 energy correction for charged system         0.000000 eV
 dipol+quadrupol energy correction           -0.002424 eV
 added-field ion interaction         -0.067513 eV  (added to PSCEN)


 Free energy of the ion-electron system (eV)
  ---------------------------------------------------
  alpha Z        PSCENC =         1.37556615
  Ewald energy   TEWEN  =      4270.00355765
  -Hartree energ DENC   =     -5575.62587725
  -exchange      EXHF   =       108.44986021
  -V(xc)+E(xc)   XCENC  =       137.97181435
  PAW double counting   =      4005.50751705    -4014.37930625
  entropy T*S    EENTRO =        -0.00000000
  eigenvalues    EBANDS =      -700.77130419
  atomic energy  EATOM  =      1612.77738675
  ---------------------------------------------------
  free energy    TOTEN  =      -154.69078554 eV

  energy without entropy =     -154.69078554  energy(sigma->0) =     -154.69078554
  exchange ACFDT corr.  =        -0.00000000  see jH, gK, PRB 81, 115126


--------------------------------------------------------------------------------------------------------




--------------------------------------- Iteration      1(  31)  ---------------------------------------


    POTLOK:  cpu time      0.8491: real time      0.8523
    SETDIJ:  cpu time      0.0067: real time      0.0067
    TRIAL :  cpu time      5.1667: real time      5.1960
    CORREC:  cpu time      0.0002: real time      0.0002
    CHARGE:  cpu time      0.1104: real time      0.1112
    --------------------------------------------
      LOOP:  cpu time      6.1332: real time      6.1665

 eigenvalue-minimisations  :     0
 total energy-change (2. order) :-0.3941900E-04  (-0.3336427E-04)
 number of electron      51.9999997 magnetization 
 augmentation part        1.2970401 magnetization 

 DIPCOR: dipole corrections for dipol
 direction  1 min pos     1, direction  2 min pos     1, direction  3 min pos     1,
 dipolmoment           0.269299      0.360691      0.663627 electrons x Angstroem
 Tr[quadrupol]        30.763891

 energy correction for charged system         0.000000 eV
 dipol+quadrupol energy correction           -0.002424 eV
 added-field ion interaction         -0.067509 eV  (added to PSCEN)


 Free energy of the ion-electron system (eV)
  ---------------------------------------------------
  alpha Z        PSCENC =         1.37557065
  Ewald energy   TEWEN  =      4270.00355765
  -Hartree energ DENC   =     -5575.62654789
  -exchange      EXHF   =       108.44992518
  -V(xc)+E(xc)   XCENC  =       137.97190722
  PAW double counting   =      4005.51574620    -4014.38754334
  entropy T*S    EENTRO =        -0.00000000
  eigenvalues    EBANDS =      -700.77082736
  atomic energy  EATOM  =      1612.77738675
  ---------------------------------------------------
  free energy    TOTEN  =      -154.69082496 eV

  energy without entropy =     -154.69082496  energy(sigma->0) =     -154.69082496
  exchange ACFDT corr.  =        -0.00000000  see jH, gK, PRB 81, 115126


--------------------------------------------------------------------------------------------------------




--------------------------------------- Iteration      1(  32)  ---------------------------------------


    POTLOK:  cpu time      0.8536: real time      0.8566
    SETDIJ:  cpu time      0.0022: real time      0.0022
    TRIAL :  cpu time      5.1698: real time      5.2010
    CORREC:  cpu time      0.0001: real time      0.0001
    CHARGE:  cpu time      0.1103: real time      0.1112
    --------------------------------------------
      LOOP:  cpu time      6.1363: real time      6.1714

 eigenvalue-minimisations  :     0
 total energy-change (2. order) :-0.2940522E-04  (-0.2598015E-04)
 number of electron      51.9999997 magnetization 
 augmentation part        1.2970426 magnetization 

 DIPCOR: dipole corrections for dipol
 direction  1 min pos     1, direction  2 min pos     1, direction  3 min pos     1,
 dipolmoment           0.269305      0.360724      0.663638 electrons x Angstroem
 Tr[quadrupol]        30.764087

 energy correction for charged system         0.000000 eV
 dipol+quadrupol energy correction           -0.002424 eV
 added-field ion interaction         -0.067512 eV  (added to PSCEN)


 Free energy of the ion-electron system (eV)
  ---------------------------------------------------
  alpha Z        PSCENC =         1.37556746
  Ewald energy   TEWEN  =      4270.00355765
  -Hartree energ DENC   =     -5575.62567883
  -exchange      EXHF   =       108.44993661
  -V(xc)+E(xc)   XCENC  =       137.97191384
  PAW double counting   =      4005.52061720    -4014.39241890
  entropy T*S    EENTRO =        -0.00000000
  eigenvalues    EBANDS =      -700.77173615
  atomic energy  EATOM  =      1612.77738675
  ---------------------------------------------------
  free energy    TOTEN  =      -154.69085436 eV

  energy without entropy =     -154.69085436  energy(sigma->0) =     -154.69085436
  exchange ACFDT corr.  =        -0.00000000  see jH, gK, PRB 81, 115126


--------------------------------------------------------------------------------------------------------




--------------------------------------- Iteration      1(  33)  ---------------------------------------


    POTLOK:  cpu time      0.8528: real time      0.8560
    SETDIJ:  cpu time      0.0023: real time      0.0023
    TRIAL :  cpu time      5.1579: real time      5.1873
    CORREC:  cpu time      0.0004: real time      0.0005
    CHARGE:  cpu time      0.1106: real time      0.1112
    --------------------------------------------
      LOOP:  cpu time      6.1348: real time      6.1700

 eigenvalue-minimisations  :     0
 total energy-change (2. order) :-0.2308379E-04  (-0.2047955E-04)
 number of electron      51.9999997 magnetization 
 augmentation part        1.2970442 magnetization 

 DIPCOR: dipole corrections for dipol
 direction  1 min pos     1, direction  2 min pos     1, direction  3 min pos     1,
 dipolmoment           0.269264      0.360691      0.663602 electrons x Angstroem
 Tr[quadrupol]        30.764102

 energy correction for charged system         0.000000 eV
 dipol+quadrupol energy correction           -0.002424 eV
 added-field ion interaction         -0.067508 eV  (added to PSCEN)


 Free energy of the ion-electron system (eV)
  ---------------------------------------------------
  alpha Z        PSCENC =         1.37557196
  Ewald energy   TEWEN  =      4270.00355765
  -Hartree energ DENC   =     -5575.62578436
  -exchange      EXHF   =       108.44997149
  -V(xc)+E(xc)   XCENC  =       137.97190927
  PAW double counting   =      4005.52557408    -4014.39738137
  entropy T*S    EENTRO =        -0.00000000
  eigenvalues    EBANDS =      -700.77168291
  atomic energy  EATOM  =      1612.77738675
  ---------------------------------------------------
  free energy    TOTEN  =      -154.69087744 eV

  energy without entropy =     -154.69087744  energy(sigma->0) =     -154.69087744
  exchange ACFDT corr.  =        -0.00000000  see jH, gK, PRB 81, 115126


--------------------------------------------------------------------------------------------------------




--------------------------------------- Iteration      1(  34)  ---------------------------------------


    POTLOK:  cpu time      0.8518: real time      0.8552
    SETDIJ:  cpu time      0.0023: real time      0.0023
    TRIAL :  cpu time      5.1325: real time      5.1662
    CORREC:  cpu time      0.0002: real time      0.0002
    CHARGE:  cpu time      0.1104: real time      0.1114
    --------------------------------------------
      LOOP:  cpu time      6.0974: real time      6.1355

 eigenvalue-minimisations  :     0
 total energy-change (2. order) :-0.1840196E-04  (-0.1657938E-04)
 number of electron      51.9999997 magnetization 
 augmentation part        1.2970462 magnetization 

 DIPCOR: dipole corrections for dipol
 direction  1 min pos     1, direction  2 min pos     1, direction  3 min pos     1,
 dipolmoment           0.269274      0.360721      0.663635 electrons x Angstroem
 Tr[quadrupol]        30.764217

 energy correction for charged system         0.000000 eV
 dipol+quadrupol energy correction           -0.002424 eV
 added-field ion interaction         -0.067512 eV  (added to PSCEN)


 Free energy of the ion-electron system (eV)
  ---------------------------------------------------
  alpha Z        PSCENC =         1.37556752
  Ewald energy   TEWEN  =      4270.00355765
  -Hartree energ DENC   =     -5575.62568163
  -exchange      EXHF   =       108.44998324
  -V(xc)+E(xc)   XCENC  =       137.97197687
  PAW double counting   =      4005.52878203    -4014.40059290
  entropy T*S    EENTRO =        -0.00000000
  eigenvalues    EBANDS =      -700.77187537
  atomic energy  EATOM  =      1612.77738675
  ---------------------------------------------------
  free energy    TOTEN  =      -154.69089585 eV

  energy without entropy =     -154.69089585  energy(sigma->0) =     -154.69089585
  exchange ACFDT corr.  =        -0.00000000  see jH, gK, PRB 81, 115126


--------------------------------------------------------------------------------------------------------




--------------------------------------- Iteration      1(  35)  ---------------------------------------


    POTLOK:  cpu time      0.8587: real time      0.8616
    SETDIJ:  cpu time      0.0024: real time      0.0024
    TRIAL :  cpu time      5.1836: real time      5.2134
    CORREC:  cpu time      0.0002: real time      0.0002
    CHARGE:  cpu time      0.1103: real time      0.1112
    --------------------------------------------
      LOOP:  cpu time      6.1554: real time      6.1890

 eigenvalue-minimisations  :     0
 total energy-change (2. order) :-0.1317465E-04  (-0.1364652E-04)
 number of electron      51.9999997 magnetization 
 augmentation part        1.2970471 magnetization 

 DIPCOR: dipole corrections for dipol
 direction  1 min pos     1, direction  2 min pos     1, direction  3 min pos     1,
 dipolmoment           0.269248      0.360688      0.663593 electrons x Angstroem
 Tr[quadrupol]        30.764173

 energy correction for charged system         0.000000 eV
 dipol+quadrupol energy correction           -0.002424 eV
 added-field ion interaction         -0.067508 eV  (added to PSCEN)


 Free energy of the ion-electron system (eV)
  ---------------------------------------------------
  alpha Z        PSCENC =         1.37557216
  Ewald energy   TEWEN  =      4270.00355765
  -Hartree energ DENC   =     -5575.62595817
  -exchange      EXHF   =       108.45001421
  -V(xc)+E(xc)   XCENC  =       137.97195228
  PAW double counting   =      4005.53281899    -4014.40463488
  entropy T*S    EENTRO =        -0.00000000
  eigenvalues    EBANDS =      -700.77161800
  atomic energy  EATOM  =      1612.77738675
  ---------------------------------------------------
  free energy    TOTEN  =      -154.69090902 eV

  energy without entropy =     -154.69090902  energy(sigma->0) =     -154.69090902
  exchange ACFDT corr.  =        -0.00000000  see jH, gK, PRB 81, 115126


--------------------------------------------------------------------------------------------------------




--------------------------------------- Iteration      1(  36)  ---------------------------------------


    POTLOK:  cpu time      0.8485: real time      0.8519
    SETDIJ:  cpu time      0.0063: real time      0.0063
    TRIAL :  cpu time      5.1689: real time      5.1994
    CORREC:  cpu time      0.0002: real time      0.0002
    CHARGE:  cpu time      0.1105: real time      0.1114
    --------------------------------------------
      LOOP:  cpu time      6.1350: real time      6.1698

 eigenvalue-minimisations  :     0
 total energy-change (2. order) :-0.1152194E-04  (-0.1126462E-04)
 number of electron      51.9999997 magnetization 
 augmentation part        1.2970491 magnetization 

 DIPCOR: dipole corrections for dipol
 direction  1 min pos     1, direction  2 min pos     1, direction  3 min pos     1,
 dipolmoment           0.269257      0.360733      0.663629 electrons x Angstroem
 Tr[quadrupol]        30.764351

 energy correction for charged system         0.000000 eV
 dipol+quadrupol energy correction           -0.002424 eV
 added-field ion interaction         -0.067513 eV  (added to PSCEN)


 Free energy of the ion-electron system (eV)
  ---------------------------------------------------
  alpha Z        PSCENC =         1.37556614
  Ewald energy   TEWEN  =      4270.00355765
  -Hartree energ DENC   =     -5575.62516137
  -exchange      EXHF   =       108.45000898
  -V(xc)+E(xc)   XCENC  =       137.97194569
  PAW double counting   =      4005.53453740    -4014.40635424
  entropy T*S    EENTRO =        -0.00000000
  eigenvalues    EBANDS =      -700.77240755
  atomic energy  EATOM  =      1612.77738675
  ---------------------------------------------------
  free energy    TOTEN  =      -154.69092054 eV

  energy without entropy =     -154.69092054  energy(sigma->0) =     -154.69092054
  exchange ACFDT corr.  =        -0.00000000  see jH, gK, PRB 81, 115126


--------------------------------------------------------------------------------------------------------




--------------------------------------- Iteration      1(  37)  ---------------------------------------


    POTLOK:  cpu time      0.8533: real time      0.8570
    SETDIJ:  cpu time      0.0022: real time      0.0022
    TRIAL :  cpu time      5.1726: real time      5.2064
    CORREC:  cpu time      0.0001: real time      0.0001
    CHARGE:  cpu time      0.1108: real time      0.1117
    --------------------------------------------
      LOOP:  cpu time      6.1392: real time      6.1776

 eigenvalue-minimisations  :     0
 total energy-change (2. order) :-0.9070326E-05  (-0.9473772E-05)
 number of electron      51.9999997 magnetization 
 augmentation part        1.2970495 magnetization 

 DIPCOR: dipole corrections for dipol
 direction  1 min pos     1, direction  2 min pos     1, direction  3 min pos     1,
 dipolmoment           0.269232      0.360709      0.663601 electrons x Angstroem
 Tr[quadrupol]        30.764234

 energy correction for charged system         0.000000 eV
 dipol+quadrupol energy correction           -0.002424 eV
 added-field ion interaction         -0.067510 eV  (added to PSCEN)


 Free energy of the ion-electron system (eV)
  ---------------------------------------------------
  alpha Z        PSCENC =         1.37556990
  Ewald energy   TEWEN  =      4270.00355765
  -Hartree energ DENC   =     -5575.62629658
  -exchange      EXHF   =       108.45005724
  -V(xc)+E(xc)   XCENC  =       137.97204038
  PAW double counting   =      4005.53853091    -4014.41035232
  entropy T*S    EENTRO =        -0.00000000
  eigenvalues    EBANDS =      -700.77142355
  atomic energy  EATOM  =      1612.77738675
  ---------------------------------------------------
  free energy    TOTEN  =      -154.69092961 eV

  energy without entropy =     -154.69092961  energy(sigma->0) =     -154.69092961
  exchange ACFDT corr.  =        -0.00000000  see jH, gK, PRB 81, 115126


--------------------------------------------------------------------------------------------------------




--------------------------------------- Iteration      1(  38)  ---------------------------------------


    POTLOK:  cpu time      0.8535: real time      0.8571
    SETDIJ:  cpu time      0.0022: real time      0.0022
    TRIAL :  cpu time      5.1566: real time      5.1908
    CORREC:  cpu time      0.0003: real time      0.0003
    CHARGE:  cpu time      0.1108: real time      0.1117
    --------------------------------------------
      LOOP:  cpu time      6.1234: real time      6.1622

 eigenvalue-minimisations  :     0
 total energy-change (2. order) :-0.7226767E-05  (-0.8365322E-05)
 number of electron      51.9999997 magnetization 
 augmentation part        1.2970513 magnetization 

 DIPCOR: dipole corrections for dipol
 direction  1 min pos     1, direction  2 min pos     1, direction  3 min pos     1,
 dipolmoment           0.269254      0.360737      0.663634 electrons x Angstroem
 Tr[quadrupol]        30.764471

 energy correction for charged system         0.000000 eV
 dipol+quadrupol energy correction           -0.002424 eV
 added-field ion interaction         -0.067513 eV  (added to PSCEN)


 Free energy of the ion-electron system (eV)
  ---------------------------------------------------
  alpha Z        PSCENC =         1.37556586
  Ewald energy   TEWEN  =      4270.00355765
  -Hartree energ DENC   =     -5575.62457800
  -exchange      EXHF   =       108.45003146
  -V(xc)+E(xc)   XCENC  =       137.97192948
  PAW double counting   =      4005.53899957    -4014.41082063
  entropy T*S    EENTRO =        -0.00000000
  eigenvalues    EBANDS =      -700.77300898
  atomic energy  EATOM  =      1612.77738675
  ---------------------------------------------------
  free energy    TOTEN  =      -154.69093684 eV

  energy without entropy =     -154.69093684  energy(sigma->0) =     -154.69093684
  exchange ACFDT corr.  =        -0.00000000  see jH, gK, PRB 81, 115126


--------------------------------------------------------------------------------------------------------




--------------------------------------- Iteration      1(  39)  ---------------------------------------


    POTLOK:  cpu time      0.8513: real time      0.8549
    SETDIJ:  cpu time      0.0023: real time      0.0023
    TRIAL :  cpu time      5.1724: real time      5.2061
    CORREC:  cpu time      0.0002: real time      0.0002
    CHARGE:  cpu time      0.1109: real time      0.1127
    --------------------------------------------
      LOOP:  cpu time      6.1374: real time      6.1809

 eigenvalue-minimisations  :     0
 total energy-change (2. order) :-0.7034007E-05  (-0.7365886E-05)
 number of electron      51.9999997 magnetization 
 augmentation part        1.2970514 magnetization 

 DIPCOR: dipole corrections for dipol
 direction  1 min pos     1, direction  2 min pos     1, direction  3 min pos     1,
 dipolmoment           0.269223      0.360720      0.663591 electrons x Angstroem
 Tr[quadrupol]        30.764259

 energy correction for charged system         0.000000 eV
 dipol+quadrupol energy correction           -0.002424 eV
 added-field ion interaction         -0.067510 eV  (added to PSCEN)


 Free energy of the ion-electron system (eV)
  ---------------------------------------------------
  alpha Z        PSCENC =         1.37556974
  Ewald energy   TEWEN  =      4270.00355765
  -Hartree energ DENC   =     -5575.62662708
  -exchange      EXHF   =       108.45009650
  -V(xc)+E(xc)   XCENC  =       137.97208083
  PAW double counting   =      4005.54332229    -4014.41514815
  entropy T*S    EENTRO =        -0.00000000
  eigenvalues    EBANDS =      -700.77118239
  atomic energy  EATOM  =      1612.77738675
  ---------------------------------------------------
  free energy    TOTEN  =      -154.69094387 eV

  energy without entropy =     -154.69094387  energy(sigma->0) =     -154.69094387
  exchange ACFDT corr.  =        -0.00000000  see jH, gK, PRB 81, 115126


--------------------------------------------------------------------------------------------------------




--------------------------------------- Iteration      1(  40)  ---------------------------------------


    POTLOK:  cpu time      0.8519: real time      0.8551
    SETDIJ:  cpu time      0.0025: real time      0.0025
    TRIAL :  cpu time      5.1543: real time      5.1888
    CORREC:  cpu time      0.0001: real time      0.0001
    CHARGE:  cpu time      0.1101: real time      0.1115
    --------------------------------------------
      LOOP:  cpu time      6.1190: real time      6.1582

 eigenvalue-minimisations  :     0
 total energy-change (2. order) :-0.5067330E-05  (-0.6934891E-05)
 number of electron      51.9999997 magnetization 
 augmentation part        1.2970527 magnetization 

 DIPCOR: dipole corrections for dipol
 direction  1 min pos     1, direction  2 min pos     1, direction  3 min pos     1,
 dipolmoment           0.269252      0.360756      0.663643 electrons x Angstroem
 Tr[quadrupol]        30.764521

 energy correction for charged system         0.000000 eV
 dipol+quadrupol energy correction           -0.002424 eV
 added-field ion interaction         -0.067515 eV  (added to PSCEN)


 Free energy of the ion-electron system (eV)
  ---------------------------------------------------
  alpha Z        PSCENC =         1.37556374
  Ewald energy   TEWEN  =      4270.00355765
  -Hartree energ DENC   =     -5575.62463812
  -exchange      EXHF   =       108.45006212
  -V(xc)+E(xc)   XCENC  =       137.97198857
  PAW double counting   =      4005.54281464    -4014.41463906
  entropy T*S    EENTRO =        -0.00000000
  eigenvalues    EBANDS =      -700.77304523
  atomic energy  EATOM  =      1612.77738675
  ---------------------------------------------------
  free energy    TOTEN  =      -154.69094894 eV

  energy without entropy =     -154.69094894  energy(sigma->0) =     -154.69094894
  exchange ACFDT corr.  =        -0.00000000  see jH, gK, PRB 81, 115126


--------------------------------------------------------------------------------------------------------




--------------------------------------- Iteration      1(  41)  ---------------------------------------


    POTLOK:  cpu time      0.8529: real time      0.8568
    SETDIJ:  cpu time      0.0023: real time      0.0023
    TRIAL :  cpu time      5.1696: real time      5.2036
    CORREC:  cpu time      0.0001: real time      0.0001
    CHARGE:  cpu time      0.1101: real time      0.1112
    --------------------------------------------
      LOOP:  cpu time      6.1353: real time      6.1742

 eigenvalue-minimisations  :     0
 total energy-change (2. order) :-0.3920733E-05  (-0.6064947E-05)
 number of electron      51.9999997 magnetization 
 augmentation part        1.2970533 magnetization 

 DIPCOR: dipole corrections for dipol
 direction  1 min pos     1, direction  2 min pos     1, direction  3 min pos     1,
 dipolmoment           0.269220      0.360730      0.663596 electrons x Angstroem
 Tr[quadrupol]        30.764371

 energy correction for charged system         0.000000 eV
 dipol+quadrupol energy correction           -0.002424 eV
 added-field ion interaction         -0.067511 eV  (added to PSCEN)


 Free energy of the ion-electron system (eV)
  ---------------------------------------------------
  alpha Z        PSCENC =         1.37556862
  Ewald energy   TEWEN  =      4270.00355765
  -Hartree energ DENC   =     -5575.62603228
  -exchange      EXHF   =       108.45011063
  -V(xc)+E(xc)   XCENC  =       137.97203016
  PAW double counting   =      4005.54598232    -4014.41781034
  entropy T*S    EENTRO =        -0.00000000
  eigenvalues    EBANDS =      -700.77174637
  atomic energy  EATOM  =      1612.77738675
  ---------------------------------------------------
  free energy    TOTEN  =      -154.69095286 eV

  energy without entropy =     -154.69095286  energy(sigma->0) =     -154.69095286
  exchange ACFDT corr.  =        -0.00000000  see jH, gK, PRB 81, 115126


--------------------------------------------------------------------------------------------------------




--------------------------------------- Iteration      1(  42)  ---------------------------------------


    POTLOK:  cpu time      0.8513: real time      0.8552
    SETDIJ:  cpu time      0.0028: real time      0.0028
    TRIAL :  cpu time      5.1569: real time      5.1899
    CORREC:  cpu time      0.0002: real time      0.0003
    CHARGE:  cpu time      0.1107: real time      0.1113
    --------------------------------------------
      LOOP:  cpu time      6.1221: real time      6.1597

 eigenvalue-minimisations  :     0
 total energy-change (2. order) :-0.3699347E-05  (-0.5476311E-05)
 number of electron      51.9999997 magnetization 
 augmentation part        1.2970541 magnetization 

 DIPCOR: dipole corrections for dipol
 direction  1 min pos     1, direction  2 min pos     1, direction  3 min pos     1,
 dipolmoment           0.269242      0.360774      0.663638 electrons x Angstroem
 Tr[quadrupol]        30.764468

 energy correction for charged system         0.000000 eV
 dipol+quadrupol energy correction           -0.002424 eV
 added-field ion interaction         -0.067517 eV  (added to PSCEN)


 Free energy of the ion-electron system (eV)
  ---------------------------------------------------
  alpha Z        PSCENC =         1.37556258
  Ewald energy   TEWEN  =      4270.00355765
  -Hartree energ DENC   =     -5575.62557271
  -exchange      EXHF   =       108.45010588
  -V(xc)+E(xc)   XCENC  =       137.97206519
  PAW double counting   =      4005.54656894    -4014.41839684
  entropy T*S    EENTRO =        -0.00000000
  eigenvalues    EBANDS =      -700.77223400
  atomic energy  EATOM  =      1612.77738675
  ---------------------------------------------------
  free energy    TOTEN  =      -154.69095656 eV

  energy without entropy =     -154.69095656  energy(sigma->0) =     -154.69095656
  exchange ACFDT corr.  =        -0.00000000  see jH, gK, PRB 81, 115126


--------------------------------------------------------------------------------------------------------




--------------------------------------- Iteration      1(  43)  ---------------------------------------


    POTLOK:  cpu time      0.8515: real time      0.8546
    SETDIJ:  cpu time      0.0039: real time      0.0039
    TRIAL :  cpu time      5.1490: real time      5.1784
    CORREC:  cpu time      0.0001: real time      0.0003
    CHARGE:  cpu time      0.1107: real time      0.1113
    --------------------------------------------
      LOOP:  cpu time      6.1190: real time      6.1540

 eigenvalue-minimisations  :     0
 total energy-change (2. order) :-0.4534835E-05  (-0.4664568E-05)
 number of electron      51.9999997 magnetization 
 augmentation part        1.2970545 magnetization 

 DIPCOR: dipole corrections for dipol
 direction  1 min pos     1, direction  2 min pos     1, direction  3 min pos     1,
 dipolmoment           0.269219      0.360737      0.663603 electrons x Angstroem
 Tr[quadrupol]        30.764458

 energy correction for charged system         0.000000 eV
 dipol+quadrupol energy correction           -0.002424 eV
 added-field ion interaction         -0.067512 eV  (added to PSCEN)


 Free energy of the ion-electron system (eV)
  ---------------------------------------------------
  alpha Z        PSCENC =         1.37556790
  Ewald energy   TEWEN  =      4270.00355765
  -Hartree energ DENC   =     -5575.62561862
  -exchange      EXHF   =       108.45012433
  -V(xc)+E(xc)   XCENC  =       137.97206126
  PAW double counting   =      4005.54813037    -4014.41996047
  entropy T*S    EENTRO =        -0.00000000
  eigenvalues    EBANDS =      -700.77221027
  atomic energy  EATOM  =      1612.77738675
  ---------------------------------------------------
  free energy    TOTEN  =      -154.69096110 eV

  energy without entropy =     -154.69096110  energy(sigma->0) =     -154.69096110
  exchange ACFDT corr.  =        -0.00000000  see jH, gK, PRB 81, 115126


--------------------------------------------------------------------------------------------------------




--------------------------------------- Iteration      1(  44)  ---------------------------------------


    POTLOK:  cpu time      0.8516: real time      0.8547
    SETDIJ:  cpu time      0.0031: real time      0.0032
    TRIAL :  cpu time      5.1618: real time      5.1910
    CORREC:  cpu time      0.0002: real time      0.0002
    CHARGE:  cpu time      0.1102: real time      0.1111
    --------------------------------------------
      LOOP:  cpu time      6.1271: real time      6.1604

 eigenvalue-minimisations  :     0
 total energy-change (2. order) :-0.2343666E-05  (-0.4014502E-05)
 number of electron      51.9999997 magnetization 
 augmentation part        1.2970554 magnetization 

 DIPCOR: dipole corrections for dipol
 direction  1 min pos     1, direction  2 min pos     1, direction  3 min pos     1,
 dipolmoment           0.269236      0.360781      0.663644 electrons x Angstroem
 Tr[quadrupol]        30.764520

 energy correction for charged system         0.000000 eV
 dipol+quadrupol energy correction           -0.002424 eV
 added-field ion interaction         -0.067517 eV  (added to PSCEN)


 Free energy of the ion-electron system (eV)
  ---------------------------------------------------
  alpha Z        PSCENC =         1.37556188
  Ewald energy   TEWEN  =      4270.00355765
  -Hartree energ DENC   =     -5575.62547968
  -exchange      EXHF   =       108.45012351
  -V(xc)+E(xc)   XCENC  =       137.97206173
  PAW double counting   =      4005.54876033    -4014.42059077
  entropy T*S    EENTRO =        -0.00000000
  eigenvalues    EBANDS =      -700.77234483
  atomic energy  EATOM  =      1612.77738675
  ---------------------------------------------------
  free energy    TOTEN  =      -154.69096344 eV

  energy without entropy =     -154.69096344  energy(sigma->0) =     -154.69096344
  exchange ACFDT corr.  =        -0.00000000  see jH, gK, PRB 81, 115126


--------------------------------------------------------------------------------------------------------




--------------------------------------- Iteration      1(  45)  ---------------------------------------


    POTLOK:  cpu time      0.8517: real time      0.8549
    SETDIJ:  cpu time      0.0037: real time      0.0037
    TRIAL :  cpu time      5.1524: real time      5.1815
    CORREC:  cpu time      0.0003: real time      0.0003
    CHARGE:  cpu time      0.1103: real time      0.1112
    --------------------------------------------
      LOOP:  cpu time      6.1190: real time      6.1523

 eigenvalue-minimisations  :     0
 total energy-change (2. order) :-0.3719880E-05  (-0.3555927E-05)
 number of electron      51.9999997 magnetization 
 augmentation part        1.2970554 magnetization 

 DIPCOR: dipole corrections for dipol
 direction  1 min pos     1, direction  2 min pos     1, direction  3 min pos     1,
 dipolmoment           0.269223      0.360754      0.663607 electrons x Angstroem
 Tr[quadrupol]        30.764445

 energy correction for charged system         0.000000 eV
 dipol+quadrupol energy correction           -0.002424 eV
 added-field ion interaction         -0.067513 eV  (added to PSCEN)


 Free energy of the ion-electron system (eV)
  ---------------------------------------------------
  alpha Z        PSCENC =         1.37556649
  Ewald energy   TEWEN  =      4270.00355765
  -Hartree energ DENC   =     -5575.62599350
  -exchange      EXHF   =       108.45014825
  -V(xc)+E(xc)   XCENC  =       137.97207976
  PAW double counting   =      4005.55048546    -4014.42231787
  entropy T*S    EENTRO =        -0.00000000
  eigenvalues    EBANDS =      -700.77188015
  atomic energy  EATOM  =      1612.77738675
  ---------------------------------------------------
  free energy    TOTEN  =      -154.69096716 eV

  energy without entropy =     -154.69096716  energy(sigma->0) =     -154.69096716
  exchange ACFDT corr.  =        -0.00000000  see jH, gK, PRB 81, 115126


--------------------------------------------------------------------------------------------------------




--------------------------------------- Iteration      1(  46)  ---------------------------------------


    POTLOK:  cpu time      0.8528: real time      0.8561
    SETDIJ:  cpu time      0.0024: real time      0.0024
    TRIAL :  cpu time      5.1538: real time      5.1828
    CORREC:  cpu time      0.0002: real time      0.0002
    CHARGE:  cpu time      0.1102: real time      0.1113
    --------------------------------------------
      LOOP:  cpu time      6.1195: real time      6.1530

 eigenvalue-minimisations  :     0
 total energy-change (2. order) :-0.1321700E-05  (-0.3423907E-05)
 number of electron      51.9999997 magnetization 
 augmentation part        1.2970564 magnetization 

 DIPCOR: dipole corrections for dipol
 direction  1 min pos     1, direction  2 min pos     1, direction  3 min pos     1,
 dipolmoment           0.269223      0.360777      0.663649 electrons x Angstroem
 Tr[quadrupol]        30.764560

 energy correction for charged system         0.000000 eV
 dipol+quadrupol energy correction           -0.002424 eV
 added-field ion interaction         -0.067518 eV  (added to PSCEN)


 Free energy of the ion-electron system (eV)
  ---------------------------------------------------
  alpha Z        PSCENC =         1.37556105
  Ewald energy   TEWEN  =      4270.00355765
  -Hartree energ DENC   =     -5575.62538480
  -exchange      EXHF   =       108.45013640
  -V(xc)+E(xc)   XCENC  =       137.97206995
  PAW double counting   =      4005.55002439    -4014.42185604
  entropy T*S    EENTRO =        -0.00000000
  eigenvalues    EBANDS =      -700.77246383
  atomic energy  EATOM  =      1612.77738675
  ---------------------------------------------------
  free energy    TOTEN  =      -154.69096848 eV

  energy without entropy =     -154.69096848  energy(sigma->0) =     -154.69096848
  exchange ACFDT corr.  =        -0.00000000  see jH, gK, PRB 81, 115126


--------------------------------------------------------------------------------------------------------




--------------------------------------- Iteration      1(  47)  ---------------------------------------


    POTLOK:  cpu time      0.8519: real time      0.8547
    SETDIJ:  cpu time      0.0028: real time      0.0028
    TRIAL :  cpu time      5.1786: real time      5.2079
    CORREC:  cpu time      0.0001: real time      0.0003
    CHARGE:  cpu time      0.1105: real time      0.1113
    --------------------------------------------
      LOOP:  cpu time      6.1442: real time      6.1774

 eigenvalue-minimisations  :     0
 total energy-change (2. order) :-0.2782731E-05  (-0.3237242E-05)
 number of electron      51.9999997 magnetization 
 augmentation part        1.2970561 magnetization 

 DIPCOR: dipole corrections for dipol
 direction  1 min pos     1, direction  2 min pos     1, direction  3 min pos     1,
 dipolmoment           0.269224      0.360771      0.663607 electrons x Angstroem
 Tr[quadrupol]        30.764466

 energy correction for charged system         0.000000 eV
 dipol+quadrupol energy correction           -0.002424 eV
 added-field ion interaction         -0.067514 eV  (added to PSCEN)


 Free energy of the ion-electron system (eV)
  ---------------------------------------------------
  alpha Z        PSCENC =         1.37556588
  Ewald energy   TEWEN  =      4270.00355765
  -Hartree energ DENC   =     -5575.62613474
  -exchange      EXHF   =       108.45016641
  -V(xc)+E(xc)   XCENC  =       137.97213962
  PAW double counting   =      4005.55212579    -4014.42396040
  entropy T*S    EENTRO =        -0.00000000
  eigenvalues    EBANDS =      -700.77181821
  atomic energy  EATOM  =      1612.77738675
  ---------------------------------------------------
  free energy    TOTEN  =      -154.69097126 eV

  energy without entropy =     -154.69097126  energy(sigma->0) =     -154.69097126
  exchange ACFDT corr.  =        -0.00000000  see jH, gK, PRB 81, 115126


--------------------------------------------------------------------------------------------------------




--------------------------------------- Iteration      1(  48)  ---------------------------------------


    POTLOK:  cpu time      0.8523: real time      0.8559
    SETDIJ:  cpu time      0.0022: real time      0.0022
    TRIAL :  cpu time      5.1614: real time      5.1899
    CORREC:  cpu time      0.0002: real time      0.0002
    CHARGE:  cpu time      0.1104: real time      0.1112
    --------------------------------------------
      LOOP:  cpu time      6.1266: real time      6.1595

 eigenvalue-minimisations  :     0
 total energy-change (2. order) :-0.1353197E-05  (-0.2979341E-05)
 number of electron      51.9999997 magnetization 
 augmentation part        1.2970570 magnetization 

 DIPCOR: dipole corrections for dipol
 direction  1 min pos     1, direction  2 min pos     1, direction  3 min pos     1,
 dipolmoment           0.269233      0.360785      0.663658 electrons x Angstroem
 Tr[quadrupol]        30.764671

 energy correction for charged system         0.000000 eV
 dipol+quadrupol energy correction           -0.002424 eV
 added-field ion interaction         -0.067518 eV  (added to PSCEN)


 Free energy of the ion-electron system (eV)
  ---------------------------------------------------
  alpha Z        PSCENC =         1.37556070
  Ewald energy   TEWEN  =      4270.00355765
  -Hartree energ DENC   =     -5575.62466368
  -exchange      EXHF   =       108.45013487
  -V(xc)+E(xc)   XCENC  =       137.97207186
  PAW double counting   =      4005.55079200    -4014.42262503
  entropy T*S    EENTRO =        -0.00000000
  eigenvalues    EBANDS =      -700.77318775
  atomic energy  EATOM  =      1612.77738675
  ---------------------------------------------------
  free energy    TOTEN  =      -154.69097262 eV

  energy without entropy =     -154.69097262  energy(sigma->0) =     -154.69097262
  exchange ACFDT corr.  =        -0.00000000  see jH, gK, PRB 81, 115126


--------------------------------------------------------------------------------------------------------




--------------------------------------- Iteration      1(  49)  ---------------------------------------


    POTLOK:  cpu time      0.8521: real time      0.8552
    SETDIJ:  cpu time      0.0028: real time      0.0029
    TRIAL :  cpu time      5.1587: real time      5.1910
    CORREC:  cpu time      0.0001: real time      0.0003
    CHARGE:  cpu time      0.1108: real time      0.1114
    --------------------------------------------
      LOOP:  cpu time      6.1250: real time      6.1616

 eigenvalue-minimisations  :     0
 total energy-change (2. order) :-0.1936503E-05  (-0.2596179E-05)
 number of electron      51.9999997 magnetization 
 augmentation part        1.2970573 magnetization 

 DIPCOR: dipole corrections for dipol
 direction  1 min pos     1, direction  2 min pos     1, direction  3 min pos     1,
 dipolmoment           0.269217      0.360771      0.663624 electrons x Angstroem
 Tr[quadrupol]        30.764487

 energy correction for charged system         0.000000 eV
 dipol+quadrupol energy correction           -0.002424 eV
 added-field ion interaction         -0.067516 eV  (added to PSCEN)


 Free energy of the ion-electron system (eV)
  ---------------------------------------------------
  alpha Z        PSCENC =         1.37556345
  Ewald energy   TEWEN  =      4270.00355765
  -Hartree energ DENC   =     -5575.62617695
  -exchange      EXHF   =       108.45017379
  -V(xc)+E(xc)   XCENC  =       137.97207884
  PAW double counting   =      4005.55280742    -4014.42464355
  entropy T*S    EENTRO =        -0.00000000
  eigenvalues    EBANDS =      -700.77172196
  atomic energy  EATOM  =      1612.77738675
  ---------------------------------------------------
  free energy    TOTEN  =      -154.69097455 eV

  energy without entropy =     -154.69097455  energy(sigma->0) =     -154.69097455
  exchange ACFDT corr.  =        -0.00000000  see jH, gK, PRB 81, 115126


--------------------------------------------------------------------------------------------------------




--------------------------------------- Iteration      1(  50)  ---------------------------------------


    POTLOK:  cpu time      0.8526: real time      0.8558
    SETDIJ:  cpu time      0.0024: real time      0.0024
    TRIAL :  cpu time      5.1641: real time      5.1926
    CORREC:  cpu time      0.0002: real time      0.0002
    CHARGE:  cpu time      0.1104: real time      0.1113
    --------------------------------------------
      LOOP:  cpu time      6.1298: real time      6.1624

 eigenvalue-minimisations  :     0
 total energy-change (2. order) :-0.1926588E-05  (-0.2570942E-05)
 number of electron      51.9999997 magnetization 
 augmentation part        1.2970575 magnetization 

 DIPCOR: dipole corrections for dipol
 direction  1 min pos     1, direction  2 min pos     1, direction  3 min pos     1,
 dipolmoment           0.269227      0.360794      0.663647 electrons x Angstroem
 Tr[quadrupol]        30.764534

 energy correction for charged system         0.000000 eV
 dipol+quadrupol energy correction           -0.002424 eV
 added-field ion interaction         -0.067518 eV  (added to PSCEN)


 Free energy of the ion-electron system (eV)
  ---------------------------------------------------
  alpha Z        PSCENC =         1.37556064
  Ewald energy   TEWEN  =      4270.00355765
  -Hartree energ DENC   =     -5575.62612517
  -exchange      EXHF   =       108.45017686
  -V(xc)+E(xc)   XCENC  =       137.97216169
  PAW double counting   =      4005.55322695    -4014.42506313
  entropy T*S    EENTRO =        -0.00000000
  eigenvalues    EBANDS =      -700.77185872
  atomic energy  EATOM  =      1612.77738675
  ---------------------------------------------------
  free energy    TOTEN  =      -154.69097648 eV

  energy without entropy =     -154.69097648  energy(sigma->0) =     -154.69097648
  exchange ACFDT corr.  =        -0.00000000  see jH, gK, PRB 81, 115126


--------------------------------------------------------------------------------------------------------




--------------------------------------- Iteration      1(  51)  ---------------------------------------


    POTLOK:  cpu time      0.8520: real time      0.8552
    SETDIJ:  cpu time      0.0023: real time      0.0023
    TRIAL :  cpu time      5.1995: real time      5.2387
    CORREC:  cpu time      0.0001: real time      0.0001
    CHARGE:  cpu time      0.1104: real time      0.1113
    --------------------------------------------
      LOOP:  cpu time      6.1645: real time      6.2078

 eigenvalue-minimisations  :     0
 total energy-change (2. order) :-0.9955966E-07  (-0.2456395E-05)
 number of electron      51.9999997 magnetization 
 augmentation part        1.2970578 magnetization 

 DIPCOR: dipole corrections for dipol
 direction  1 min pos     1, direction  2 min pos     1, direction  3 min pos     1,
 dipolmoment           0.269217      0.360769      0.663634 electrons x Angstroem
 Tr[quadrupol]        30.764570

 energy correction for charged system         0.000000 eV
 dipol+quadrupol energy correction           -0.002424 eV
 added-field ion interaction         -0.067516 eV  (added to PSCEN)


 Free energy of the ion-electron system (eV)
  ---------------------------------------------------
  alpha Z        PSCENC =         1.37556286
  Ewald energy   TEWEN  =      4270.00355765
  -Hartree energ DENC   =     -5575.62543067
  -exchange      EXHF   =       108.45016940
  -V(xc)+E(xc)   XCENC  =       137.97207915
  PAW double counting   =      4005.55294163    -4014.42477786
  entropy T*S    EENTRO =        -0.00000000
  eigenvalues    EBANDS =      -700.77246549
  atomic energy  EATOM  =      1612.77738675
  ---------------------------------------------------
  free energy    TOTEN  =      -154.69097658 eV

  energy without entropy =     -154.69097658  energy(sigma->0) =     -154.69097658
  exchange ACFDT corr.  =        -0.00000000  see jH, gK, PRB 81, 115126


--------------------------------------------------------------------------------------------------------




--------------------------------------- Iteration      1(  52)  ---------------------------------------


    POTLOK:  cpu time      0.8520: real time      0.8554
    SETDIJ:  cpu time      0.0024: real time      0.0024
    TRIAL :  cpu time      5.1713: real time      5.2018
    CORREC:  cpu time      0.0001: real time      0.0001
    CHARGE:  cpu time      0.1104: real time      0.1113
    --------------------------------------------
      LOOP:  cpu time      6.1364: real time      6.1713

 eigenvalue-minimisations  :     0
 total energy-change (2. order) :-0.3580271E-06  (-0.2289019E-05)
 number of electron      51.9999997 magnetization 
 augmentation part        1.2970583 magnetization 

 DIPCOR: dipole corrections for dipol
 direction  1 min pos     1, direction  2 min pos     1, direction  3 min pos     1,
 dipolmoment           0.269233      0.360806      0.663644 electrons x Angstroem
 Tr[quadrupol]        30.764619

 energy correction for charged system         0.000000 eV
 dipol+quadrupol energy correction           -0.002424 eV
 added-field ion interaction         -0.067519 eV  (added to PSCEN)


 Free energy of the ion-electron system (eV)
  ---------------------------------------------------
  alpha Z        PSCENC =         1.37556045
  Ewald energy   TEWEN  =      4270.00355765
  -Hartree energ DENC   =     -5575.62560983
  -exchange      EXHF   =       108.45017378
  -V(xc)+E(xc)   XCENC  =       137.97212734
  PAW double counting   =      4005.55376939    -4014.42560649
  entropy T*S    EENTRO =        -0.00000000
  eigenvalues    EBANDS =      -700.77233598
  atomic energy  EATOM  =      1612.77738675
  ---------------------------------------------------
  free energy    TOTEN  =      -154.69097694 eV

  energy without entropy =     -154.69097694  energy(sigma->0) =     -154.69097694
  exchange ACFDT corr.  =        -0.00000000  see jH, gK, PRB 81, 115126


--------------------------------------------------------------------------------------------------------




--------------------------------------- Iteration      1(  53)  ---------------------------------------


    POTLOK:  cpu time      0.8518: real time      0.8553
    SETDIJ:  cpu time      0.0022: real time      0.0022
    TRIAL :  cpu time      5.1784: real time      5.2088
    CORREC:  cpu time      0.0001: real time      0.0001
    CHARGE:  cpu time      0.1105: real time      0.1115
    --------------------------------------------
      LOOP:  cpu time      6.1445: real time      6.1810

 eigenvalue-minimisations  :     0
 total energy-change (2. order) :-0.1360751E-05  (-0.2095308E-05)
 number of electron      51.9999997 magnetization 
 augmentation part        1.2970582 magnetization 

 DIPCOR: dipole corrections for dipol
 direction  1 min pos     1, direction  2 min pos     1, direction  3 min pos     1,
 dipolmoment           0.269207      0.360778      0.663647 electrons x Angstroem
 Tr[quadrupol]        30.764526

 energy correction for charged system         0.000000 eV
 dipol+quadrupol energy correction           -0.002424 eV
 added-field ion interaction         -0.067518 eV  (added to PSCEN)


 Free energy of the ion-electron system (eV)
  ---------------------------------------------------
  alpha Z        PSCENC =         1.37556083
  Ewald energy   TEWEN  =      4270.00355765
  -Hartree energ DENC   =     -5575.62610620
  -exchange      EXHF   =       108.45018870
  -V(xc)+E(xc)   XCENC  =       137.97214943
  PAW double counting   =      4005.55431133    -4014.42614970
  entropy T*S    EENTRO =        -0.00000000
  eigenvalues    EBANDS =      -700.77187708
  atomic energy  EATOM  =      1612.77738675
  ---------------------------------------------------
  free energy    TOTEN  =      -154.69097830 eV

  energy without entropy =     -154.69097830  energy(sigma->0) =     -154.69097830
  exchange ACFDT corr.  =        -0.00000000  see jH, gK, PRB 81, 115126


--------------------------------------------------------------------------------------------------------




--------------------------------------- Iteration      1(  54)  ---------------------------------------


    POTLOK:  cpu time      0.8516: real time      0.8549
    SETDIJ:  cpu time      0.0029: real time      0.0029
    TRIAL :  cpu time      5.1670: real time      5.1973
    CORREC:  cpu time      0.0002: real time      0.0002
    CHARGE:  cpu time      0.1105: real time      0.1114
    --------------------------------------------
      LOOP:  cpu time      6.1324: real time      6.1669

 eigenvalue-minimisations  :     0
 total energy-change (2. order) :-0.1281242E-05  (-0.2054894E-05)
 number of electron      51.9999997 magnetization 
 augmentation part        1.2970588 magnetization 

 DIPCOR: dipole corrections for dipol
 direction  1 min pos     1, direction  2 min pos     1, direction  3 min pos     1,
 dipolmoment           0.269233      0.360802      0.663646 electrons x Angstroem
 Tr[quadrupol]        30.764658

 energy correction for charged system         0.000000 eV
 dipol+quadrupol energy correction           -0.002424 eV
 added-field ion interaction         -0.067518 eV  (added to PSCEN)


 Free energy of the ion-electron system (eV)
  ---------------------------------------------------
  alpha Z        PSCENC =         1.37556069
  Ewald energy   TEWEN  =      4270.00355765
  -Hartree energ DENC   =     -5575.62538224
  -exchange      EXHF   =       108.45017612
  -V(xc)+E(xc)   XCENC  =       137.97209013
  PAW double counting   =      4005.55433031    -4014.42616832
  entropy T*S    EENTRO =        -0.00000000
  eigenvalues    EBANDS =      -700.77253067
  atomic energy  EATOM  =      1612.77738675
  ---------------------------------------------------
  free energy    TOTEN  =      -154.69097958 eV

  energy without entropy =     -154.69097958  energy(sigma->0) =     -154.69097958
  exchange ACFDT corr.  =        -0.00000000  see jH, gK, PRB 81, 115126


--------------------------------------------------------------------------------------------------------




--------------------------------------- Iteration      1(  55)  ---------------------------------------


    POTLOK:  cpu time      0.8526: real time      0.8559
    SETDIJ:  cpu time      0.0025: real time      0.0025
    TRIAL :  cpu time      5.2162: real time      5.2462
    CORREC:  cpu time      0.0002: real time      0.0002
    CHARGE:  cpu time      0.1105: real time      0.1114
    --------------------------------------------
      LOOP:  cpu time      6.1821: real time      6.2163

 eigenvalue-minimisations  :     0
 total energy-change (2. order) :-0.9213791E-06  (-0.2026684E-05)
 number of electron      51.9999997 magnetization 
 augmentation part        1.2970586 magnetization 

 DIPCOR: dipole corrections for dipol
 direction  1 min pos     1, direction  2 min pos     1, direction  3 min pos     1,
 dipolmoment           0.269212      0.360793      0.663641 electrons x Angstroem
 Tr[quadrupol]        30.764510

 energy correction for charged system         0.000000 eV
 dipol+quadrupol energy correction           -0.002424 eV
 added-field ion interaction         -0.067519 eV  (added to PSCEN)


 Free energy of the ion-electron system (eV)
  ---------------------------------------------------
  alpha Z        PSCENC =         1.37556060
  Ewald energy   TEWEN  =      4270.00355765
  -Hartree energ DENC   =     -5575.62633523
  -exchange      EXHF   =       108.45019867
  -V(xc)+E(xc)   XCENC  =       137.97217397
  PAW double counting   =      4005.55528822    -4014.42712761
  entropy T*S    EENTRO =        -0.00000000
  eigenvalues    EBANDS =      -700.77168353
  atomic energy  EATOM  =      1612.77738675
  ---------------------------------------------------
  free energy    TOTEN  =      -154.69098050 eV

  energy without entropy =     -154.69098050  energy(sigma->0) =     -154.69098050
  exchange ACFDT corr.  =        -0.00000000  see jH, gK, PRB 81, 115126


--------------------------------------------------------------------------------------------------------




--------------------------------------- Iteration      1(  56)  ---------------------------------------


    POTLOK:  cpu time      0.8518: real time      0.8551
    SETDIJ:  cpu time      0.0025: real time      0.0025
    TRIAL :  cpu time      5.1725: real time      5.2027
    CORREC:  cpu time      0.0002: real time      0.0002
    CHARGE:  cpu time      0.1105: real time      0.1114
    --------------------------------------------
      LOOP:  cpu time      6.1376: real time      6.1720

 eigenvalue-minimisations  :     0
 total energy-change (2. order) :-0.9925361E-06  (-0.1991940E-05)
 number of electron      51.9999997 magnetization 
 augmentation part        1.2970592 magnetization 

 DIPCOR: dipole corrections for dipol
 direction  1 min pos     1, direction  2 min pos     1, direction  3 min pos     1,
 dipolmoment           0.269229      0.360798      0.663661 electrons x Angstroem
 Tr[quadrupol]        30.764662

 energy correction for charged system         0.000000 eV
 dipol+quadrupol energy correction           -0.002424 eV
 added-field ion interaction         -0.067519 eV  (added to PSCEN)


 Free energy of the ion-electron system (eV)
  ---------------------------------------------------
  alpha Z        PSCENC =         1.37555965
  Ewald energy   TEWEN  =      4270.00355765
  -Hartree energ DENC   =     -5575.62534663
  -exchange      EXHF   =       108.45017910
  -V(xc)+E(xc)   XCENC  =       137.97208235
  PAW double counting   =      4005.55481823    -4014.42665703
  entropy T*S    EENTRO =        -0.00000000
  eigenvalues    EBANDS =      -700.77256157
  atomic energy  EATOM  =      1612.77738675
  ---------------------------------------------------
  free energy    TOTEN  =      -154.69098149 eV

  energy without entropy =     -154.69098149  energy(sigma->0) =     -154.69098149
  exchange ACFDT corr.  =        -0.00000000  see jH, gK, PRB 81, 115126


--------------------------------------------------------------------------------------------------------




--------------------------------------- Iteration      1(  57)  ---------------------------------------


    POTLOK:  cpu time      0.8493: real time      0.8532
    SETDIJ:  cpu time      0.0051: real time      0.0051
    TRIAL :  cpu time      5.1564: real time      5.1872
    CORREC:  cpu time      0.0001: real time      0.0003
    CHARGE:  cpu time      0.1101: real time      0.1113
    --------------------------------------------
      LOOP:  cpu time      6.1212: real time      6.1573

 eigenvalue-minimisations  :     0
 total energy-change (2. order) :-0.1731714E-06  (-0.1595768E-05)
 number of electron      51.9999997 magnetization 
 augmentation part        1.2970592 magnetization 

 DIPCOR: dipole corrections for dipol
 direction  1 min pos     1, direction  2 min pos     1, direction  3 min pos     1,
 dipolmoment           0.269210      0.360804      0.663637 electrons x Angstroem
 Tr[quadrupol]        30.764542

 energy correction for charged system         0.000000 eV
 dipol+quadrupol energy correction           -0.002424 eV
 added-field ion interaction         -0.067519 eV  (added to PSCEN)


 Free energy of the ion-electron system (eV)
  ---------------------------------------------------
  alpha Z        PSCENC =         1.37556054
  Ewald energy   TEWEN  =      4270.00355765
  -Hartree energ DENC   =     -5575.62643589
  -exchange      EXHF   =       108.45020787
  -V(xc)+E(xc)   XCENC  =       137.97217762
  PAW double counting   =      4005.55596450    -4014.42780516
  entropy T*S    EENTRO =        -0.00000000
  eigenvalues    EBANDS =      -700.77159555
  atomic energy  EATOM  =      1612.77738675
  ---------------------------------------------------
  free energy    TOTEN  =      -154.69098167 eV

  energy without entropy =     -154.69098167  energy(sigma->0) =     -154.69098167
  exchange ACFDT corr.  =        -0.00000000  see jH, gK, PRB 81, 115126


--------------------------------------------------------------------------------------------------------




--------------------------------------- Iteration      1(  58)  ---------------------------------------


    POTLOK:  cpu time      0.8522: real time      0.8552
    SETDIJ:  cpu time      0.0024: real time      0.0024
    TRIAL :  cpu time      5.1451: real time      5.1762
    CORREC:  cpu time      0.0001: real time      0.0001
    CHARGE:  cpu time      0.1108: real time      0.1118
    --------------------------------------------
      LOOP:  cpu time      6.1108: real time      6.1459

 eigenvalue-minimisations  :     0
 total energy-change (2. order) :-0.1461212E-06  (-0.1474476E-05)
 number of electron      51.9999997 magnetization 
 augmentation part        1.2970593 magnetization 

 DIPCOR: dipole corrections for dipol
 direction  1 min pos     1, direction  2 min pos     1, direction  3 min pos     1,
 dipolmoment           0.269230      0.360804      0.663655 electrons x Angstroem
 Tr[quadrupol]        30.764617

 energy correction for charged system         0.000000 eV
 dipol+quadrupol energy correction           -0.002424 eV
 added-field ion interaction         -0.067520 eV  (added to PSCEN)


 Free energy of the ion-electron system (eV)
  ---------------------------------------------------
  alpha Z        PSCENC =         1.37555933
  Ewald energy   TEWEN  =      4270.00355765
  -Hartree energ DENC   =     -5575.62578254
  -exchange      EXHF   =       108.45019275
  -V(xc)+E(xc)   XCENC  =       137.97215549
  PAW double counting   =      4005.55574388    -4014.42758414
  entropy T*S    EENTRO =        -0.00000000
  eigenvalues    EBANDS =      -700.77221099
  atomic energy  EATOM  =      1612.77738675
  ---------------------------------------------------
  free energy    TOTEN  =      -154.69098181 eV

  energy without entropy =     -154.69098181  energy(sigma->0) =     -154.69098181
  exchange ACFDT corr.  =        -0.00000000  see jH, gK, PRB 81, 115126


--------------------------------------------------------------------------------------------------------




--------------------------------------- Iteration      1(  59)  ---------------------------------------


    POTLOK:  cpu time      0.8518: real time      0.8554
    SETDIJ:  cpu time      0.0028: real time      0.0028
    TRIAL :  cpu time      5.1685: real time      5.1982
    CORREC:  cpu time      0.0002: real time      0.0002
    CHARGE:  cpu time      0.1104: real time      0.1113
    --------------------------------------------
      LOOP:  cpu time      6.1340: real time      6.1695

 eigenvalue-minimisations  :     0
 total energy-change (2. order) :-0.5195534E-06  (-0.1398896E-05)
 number of electron      51.9999997 magnetization 
 augmentation part        1.2970597 magnetization 

 DIPCOR: dipole corrections for dipol
 direction  1 min pos     1, direction  2 min pos     1, direction  3 min pos     1,
 dipolmoment           0.269211      0.360794      0.663656 electrons x Angstroem
 Tr[quadrupol]        30.764642

 energy correction for charged system         0.000000 eV
 dipol+quadrupol energy correction           -0.002424 eV
 added-field ion interaction         -0.067520 eV  (added to PSCEN)


 Free energy of the ion-electron system (eV)
  ---------------------------------------------------
  alpha Z        PSCENC =         1.37555962
  Ewald energy   TEWEN  =      4270.00355765
  -Hartree energ DENC   =     -5575.62550401
  -exchange      EXHF   =       108.45019162
  -V(xc)+E(xc)   XCENC  =       137.97208684
  PAW double counting   =      4005.55572633    -4014.42756688
  entropy T*S    EENTRO =        -0.00000000
  eigenvalues    EBANDS =      -700.77242025
  atomic energy  EATOM  =      1612.77738675
  ---------------------------------------------------
  free energy    TOTEN  =      -154.69098233 eV

  energy without entropy =     -154.69098233  energy(sigma->0) =     -154.69098233
  exchange ACFDT corr.  =        -0.00000000  see jH, gK, PRB 81, 115126


--------------------------------------------------------------------------------------------------------




--------------------------------------- Iteration      1(  60)  ---------------------------------------


    POTLOK:  cpu time      0.8525: real time      0.8557
    SETDIJ:  cpu time      0.0026: real time      0.0026
    TRIAL :  cpu time      5.1492: real time      5.1796
    CORREC:  cpu time      0.0001: real time      0.0001
    CHARGE:  cpu time      0.1103: real time      0.1112
    --------------------------------------------
      LOOP:  cpu time      6.1148: real time      6.1494

 eigenvalue-minimisations  :     0
 total energy-change (2. order) :-0.7898907E-06  (-0.1331136E-05)
 number of electron      51.9999997 magnetization 
 augmentation part        1.2970597 magnetization 

 DIPCOR: dipole corrections for dipol
 direction  1 min pos     1, direction  2 min pos     1, direction  3 min pos     1,
 dipolmoment           0.269228      0.360820      0.663657 electrons x Angstroem
 Tr[quadrupol]        30.764536

 energy correction for charged system         0.000000 eV
 dipol+quadrupol energy correction           -0.002424 eV
 added-field ion interaction         -0.067520 eV  (added to PSCEN)


 Free energy of the ion-electron system (eV)
  ---------------------------------------------------
  alpha Z        PSCENC =         1.37555878
  Ewald energy   TEWEN  =      4270.00355765
  -Hartree energ DENC   =     -5575.62673609
  -exchange      EXHF   =       108.45021474
  -V(xc)+E(xc)   XCENC  =       137.97217640
  PAW double counting   =      4005.55701515    -4014.42885701
  entropy T*S    EENTRO =        -0.00000000
  eigenvalues    EBANDS =      -700.77129949
  atomic energy  EATOM  =      1612.77738675
  ---------------------------------------------------
  free energy    TOTEN  =      -154.69098312 eV

  energy without entropy =     -154.69098312  energy(sigma->0) =     -154.69098312
  exchange ACFDT corr.  =        -0.00000000  see jH, gK, PRB 81, 115126


--------------------------------------------------------------------------------------------------------




--------------------------------------- Iteration      1(  61)  ---------------------------------------


    POTLOK:  cpu time      0.8516: real time      0.8550
    SETDIJ:  cpu time      0.0031: real time      0.0031
    TRIAL :  cpu time      5.1773: real time      5.2076
    CORREC:  cpu time      0.0001: real time      0.0001
    CHARGE:  cpu time      0.1104: real time      0.1113
    --------------------------------------------
      LOOP:  cpu time      6.1427: real time      6.1773

 eigenvalue-minimisations  :     0
 total energy-change (2. order) :-0.3469759E-06  (-0.1328274E-05)
 number of electron      51.9999997 magnetization 
 augmentation part        1.2970599 magnetization 

 DIPCOR: dipole corrections for dipol
 direction  1 min pos     1, direction  2 min pos     1, direction  3 min pos     1,
 dipolmoment           0.269215      0.360795      0.663656 electrons x Angstroem
 Tr[quadrupol]        30.764595

 energy correction for charged system         0.000000 eV
 dipol+quadrupol energy correction           -0.002424 eV
 added-field ion interaction         -0.067520 eV  (added to PSCEN)


 Free energy of the ion-electron system (eV)
  ---------------------------------------------------
  alpha Z        PSCENC =         1.37555930
  Ewald energy   TEWEN  =      4270.00355765
  -Hartree energ DENC   =     -5575.62599726
  -exchange      EXHF   =       108.45020524
  -V(xc)+E(xc)   XCENC  =       137.97214374
  PAW double counting   =      4005.55658703    -4014.42842863
  entropy T*S    EENTRO =        -0.00000000
  eigenvalues    EBANDS =      -700.77199730
  atomic energy  EATOM  =      1612.77738675
  ---------------------------------------------------
  free energy    TOTEN  =      -154.69098347 eV

  energy without entropy =     -154.69098347  energy(sigma->0) =     -154.69098347
  exchange ACFDT corr.  =        -0.00000000  see jH, gK, PRB 81, 115126


--------------------------------------------------------------------------------------------------------




--------------------------------------- Iteration      1(  62)  ---------------------------------------


    POTLOK:  cpu time      0.8505: real time      0.8539
    SETDIJ:  cpu time      0.0040: real time      0.0040
    TRIAL :  cpu time      5.1771: real time      5.2070
    CORREC:  cpu time      0.0001: real time      0.0001
    CHARGE:  cpu time      0.1104: real time      0.1113
    --------------------------------------------
      LOOP:  cpu time      6.1422: real time      6.1764

 eigenvalue-minimisations  :     0
 total energy-change (2. order) : 0.8849383E-07  (-0.1422547E-05)
 number of electron      51.9999997 magnetization 
 augmentation part        1.2970599 magnetization 

 DIPCOR: dipole corrections for dipol
 direction  1 min pos     1, direction  2 min pos     1, direction  3 min pos     1,
 dipolmoment           0.269226      0.360819      0.663666 electrons x Angstroem
 Tr[quadrupol]        30.764610

 energy correction for charged system         0.000000 eV
 dipol+quadrupol energy correction           -0.002424 eV
 added-field ion interaction         -0.067521 eV  (added to PSCEN)


 Free energy of the ion-electron system (eV)
  ---------------------------------------------------
  alpha Z        PSCENC =         1.37555767
  Ewald energy   TEWEN  =      4270.00355765
  -Hartree energ DENC   =     -5575.62604624
  -exchange      EXHF   =       108.45020523
  -V(xc)+E(xc)   XCENC  =       137.97213914
  PAW double counting   =      4005.55708798    -4014.42893013
  entropy T*S    EENTRO =        -0.00000000
  eigenvalues    EBANDS =      -700.77194143
  atomic energy  EATOM  =      1612.77738675
  ---------------------------------------------------
  free energy    TOTEN  =      -154.69098338 eV

  energy without entropy =     -154.69098338  energy(sigma->0) =     -154.69098338
  exchange ACFDT corr.  =        -0.00000000  see jH, gK, PRB 81, 115126


--------------------------------------------------------------------------------------------------------




--------------------------------------- Iteration      1(  63)  ---------------------------------------


    POTLOK:  cpu time      0.8525: real time      0.8560
    SETDIJ:  cpu time      0.0025: real time      0.0025
    TRIAL :  cpu time      5.1742: real time      5.2029
    CORREC:  cpu time      0.0001: real time      0.0001
    CHARGE:  cpu time      0.1101: real time      0.1115
    --------------------------------------------
      LOOP:  cpu time      6.1469: real time      6.1820

 eigenvalue-minimisations  :     0
 total energy-change (2. order) :-0.5102047E-06  (-0.1478639E-05)
 number of electron      51.9999997 magnetization 
 augmentation part        1.2970602 magnetization 

 DIPCOR: dipole corrections for dipol
 direction  1 min pos     1, direction  2 min pos     1, direction  3 min pos     1,
 dipolmoment           0.269215      0.360805      0.663650 electrons x Angstroem
 Tr[quadrupol]        30.764570

 energy correction for charged system         0.000000 eV
 dipol+quadrupol energy correction           -0.002424 eV
 added-field ion interaction         -0.067520 eV  (added to PSCEN)


 Free energy of the ion-electron system (eV)
  ---------------------------------------------------
  alpha Z        PSCENC =         1.37555932
  Ewald energy   TEWEN  =      4270.00355765
  -Hartree energ DENC   =     -5575.62634006
  -exchange      EXHF   =       108.45021294
  -V(xc)+E(xc)   XCENC  =       137.97215972
  PAW double counting   =      4005.55717336    -4014.42901567
  entropy T*S    EENTRO =        -0.00000000
  eigenvalues    EBANDS =      -700.77167791
  atomic energy  EATOM  =      1612.77738675
  ---------------------------------------------------
  free energy    TOTEN  =      -154.69098389 eV

  energy without entropy =     -154.69098389  energy(sigma->0) =     -154.69098389
  exchange ACFDT corr.  =        -0.00000000  see jH, gK, PRB 81, 115126


--------------------------------------------------------------------------------------------------------




--------------------------------------- Iteration      1(  64)  ---------------------------------------


    POTLOK:  cpu time      0.8525: real time      0.8553
    SETDIJ:  cpu time      0.0029: real time      0.0029
    TRIAL :  cpu time      5.1548: real time      5.1858
    CORREC:  cpu time      0.0001: real time      0.0001
    CHARGE:  cpu time      0.1105: real time      0.1115
    --------------------------------------------
      LOOP:  cpu time      6.1209: real time      6.1557

 eigenvalue-minimisations  :     0
 total energy-change (2. order) : 0.7198951E-06  (-0.1518395E-05)
 number of electron      51.9999997 magnetization 
 augmentation part        1.2970604 magnetization 

 DIPCOR: dipole corrections for dipol
 direction  1 min pos     1, direction  2 min pos     1, direction  3 min pos     1,
 dipolmoment           0.269232      0.360813      0.663680 electrons x Angstroem
 Tr[quadrupol]        30.764596

 energy correction for charged system         0.000000 eV
 dipol+quadrupol energy correction           -0.002425 eV
 added-field ion interaction         -0.067522 eV  (added to PSCEN)


 Free energy of the ion-electron system (eV)
  ---------------------------------------------------
  alpha Z        PSCENC =         1.37555660
  Ewald energy   TEWEN  =      4270.00355765
  -Hartree energ DENC   =     -5575.62625254
  -exchange      EXHF   =       108.45021103
  -V(xc)+E(xc)   XCENC  =       137.97212263
  PAW double counting   =      4005.55769329    -4014.42953631
  entropy T*S    EENTRO =        -0.00000000
  eigenvalues    EBANDS =      -700.77172228
  atomic energy  EATOM  =      1612.77738675
  ---------------------------------------------------
  free energy    TOTEN  =      -154.69098317 eV

  energy without entropy =     -154.69098317  energy(sigma->0) =     -154.69098317
  exchange ACFDT corr.  =        -0.00000000  see jH, gK, PRB 81, 115126


--------------------------------------------------------------------------------------------------------




--------------------------------------- Iteration      1(  65)  ---------------------------------------


    POTLOK:  cpu time      0.8518: real time      0.8553
    SETDIJ:  cpu time      0.0026: real time      0.0026
    TRIAL :  cpu time      5.1693: real time      5.1997
    CORREC:  cpu time      0.0001: real time      0.0001
    CHARGE:  cpu time      0.1104: real time      0.1113
    --------------------------------------------
      LOOP:  cpu time      6.1345: real time      6.1693

 eigenvalue-minimisations  :     0
 total energy-change (2. order) :-0.1136789E-05  (-0.1399638E-05)
 number of electron      51.9999997 magnetization 
 augmentation part        1.2970603 magnetization 

 DIPCOR: dipole corrections for dipol
 direction  1 min pos     1, direction  2 min pos     1, direction  3 min pos     1,
 dipolmoment           0.269214      0.360813      0.663645 electrons x Angstroem
 Tr[quadrupol]        30.764558

 energy correction for charged system         0.000000 eV
 dipol+quadrupol energy correction           -0.002424 eV
 added-field ion interaction         -0.067520 eV  (added to PSCEN)


 Free energy of the ion-electron system (eV)
  ---------------------------------------------------
  alpha Z        PSCENC =         1.37555932
  Ewald energy   TEWEN  =      4270.00355765
  -Hartree energ DENC   =     -5575.62654532
  -exchange      EXHF   =       108.45022163
  -V(xc)+E(xc)   XCENC  =       137.97220334
  PAW double counting   =      4005.55784593    -4014.42968920
  entropy T*S    EENTRO =        -0.00000000
  eigenvalues    EBANDS =      -700.77152441
  atomic energy  EATOM  =      1612.77738675
  ---------------------------------------------------
  free energy    TOTEN  =      -154.69098431 eV

  energy without entropy =     -154.69098431  energy(sigma->0) =     -154.69098431
  exchange ACFDT corr.  =        -0.00000000  see jH, gK, PRB 81, 115126


--------------------------------------------------------------------------------------------------------




--------------------------------------- Iteration      1(  66)  ---------------------------------------


    POTLOK:  cpu time      0.8520: real time      0.8553
    SETDIJ:  cpu time      0.0031: real time      0.0032
    TRIAL :  cpu time      5.1537: real time      5.1846
    CORREC:  cpu time      0.0001: real time      0.0001
    CHARGE:  cpu time      0.1104: real time      0.1113
    --------------------------------------------
      LOOP:  cpu time      6.1195: real time      6.1547

 eigenvalue-minimisations  :     0
 total energy-change (2. order) :-0.7775816E-07  (-0.1384393E-05)
 number of electron      51.9999997 magnetization 
 augmentation part        1.2970608 magnetization 

 DIPCOR: dipole corrections for dipol
 direction  1 min pos     1, direction  2 min pos     1, direction  3 min pos     1,
 dipolmoment           0.269232      0.360819      0.663685 electrons x Angstroem
 Tr[quadrupol]        30.764671

 energy correction for charged system         0.000000 eV
 dipol+quadrupol energy correction           -0.002425 eV
 added-field ion interaction         -0.067523 eV  (added to PSCEN)


 Free energy of the ion-electron system (eV)
  ---------------------------------------------------
  alpha Z        PSCENC =         1.37555593
  Ewald energy   TEWEN  =      4270.00355765
  -Hartree energ DENC   =     -5575.62571072
  -exchange      EXHF   =       108.45020200
  -V(xc)+E(xc)   XCENC  =       137.97210792
  PAW double counting   =      4005.55739312    -4014.42923617
  entropy T*S    EENTRO =        -0.00000000
  eigenvalues    EBANDS =      -700.77224086
  atomic energy  EATOM  =      1612.77738675
  ---------------------------------------------------
  free energy    TOTEN  =      -154.69098439 eV

  energy without entropy =     -154.69098439  energy(sigma->0) =     -154.69098439
  exchange ACFDT corr.  =        -0.00000000  see jH, gK, PRB 81, 115126


--------------------------------------------------------------------------------------------------------




--------------------------------------- Iteration      1(  67)  ---------------------------------------


    POTLOK:  cpu time      0.8502: real time      0.8535
    SETDIJ:  cpu time      0.0049: real time      0.0049
    TRIAL :  cpu time      5.1634: real time      5.1942
    CORREC:  cpu time      0.0002: real time      0.0002
    CHARGE:  cpu time      0.1104: real time      0.1113
    --------------------------------------------
      LOOP:  cpu time      6.1293: real time      6.1643

 eigenvalue-minimisations  :     0
 total energy-change (2. order) :-0.8498582E-06  (-0.1247297E-05)
 number of electron      51.9999997 magnetization 
 augmentation part        1.2970603 magnetization 

 DIPCOR: dipole corrections for dipol
 direction  1 min pos     1, direction  2 min pos     1, direction  3 min pos     1,
 dipolmoment           0.269214      0.360811      0.663647 electrons x Angstroem
 Tr[quadrupol]        30.764524

 energy correction for charged system         0.000000 eV
 dipol+quadrupol energy correction           -0.002424 eV
 added-field ion interaction         -0.067520 eV  (added to PSCEN)


 Free energy of the ion-electron system (eV)
  ---------------------------------------------------
  alpha Z        PSCENC =         1.37555951
  Ewald energy   TEWEN  =      4270.00355765
  -Hartree energ DENC   =     -5575.62677840
  -exchange      EXHF   =       108.45022751
  -V(xc)+E(xc)   XCENC  =       137.97219779
  PAW double counting   =      4005.55867968    -4014.43052420
  entropy T*S    EENTRO =        -0.00000000
  eigenvalues    EBANDS =      -700.77129153
  atomic energy  EATOM  =      1612.77738675
  ---------------------------------------------------
  free energy    TOTEN  =      -154.69098524 eV

  energy without entropy =     -154.69098524  energy(sigma->0) =     -154.69098524
  exchange ACFDT corr.  =        -0.00000000  see jH, gK, PRB 81, 115126


--------------------------------------------------------------------------------------------------------




--------------------------------------- Iteration      1(  68)  ---------------------------------------


    POTLOK:  cpu time      0.8517: real time      0.8550
    SETDIJ:  cpu time      0.0033: real time      0.0033
    TRIAL :  cpu time      5.1516: real time      5.1818
    CORREC:  cpu time      0.0002: real time      0.0002
    CHARGE:  cpu time      0.1105: real time      0.1114
    --------------------------------------------
      LOOP:  cpu time      6.1175: real time      6.1518

 eigenvalue-minimisations  :     0
 total energy-change (2. order) : 0.3160358E-06  (-0.1062138E-05)
 number of electron      51.9999997 magnetization 
 augmentation part        1.2970609 magnetization 

 DIPCOR: dipole corrections for dipol
 direction  1 min pos     1, direction  2 min pos     1, direction  3 min pos     1,
 dipolmoment           0.269231      0.360822      0.663687 electrons x Angstroem
 Tr[quadrupol]        30.764671

 energy correction for charged system         0.000000 eV
 dipol+quadrupol energy correction           -0.002425 eV
 added-field ion interaction         -0.067523 eV  (added to PSCEN)


 Free energy of the ion-electron system (eV)
  ---------------------------------------------------
  alpha Z        PSCENC =         1.37555588
  Ewald energy   TEWEN  =      4270.00355765
  -Hartree energ DENC   =     -5575.62585872
  -exchange      EXHF   =       108.45020686
  -V(xc)+E(xc)   XCENC  =       137.97212813
  PAW double counting   =      4005.55766500    -4014.42950823
  entropy T*S    EENTRO =        -0.00000000
  eigenvalues    EBANDS =      -700.77211824
  atomic energy  EATOM  =      1612.77738675
  ---------------------------------------------------
  free energy    TOTEN  =      -154.69098492 eV

  energy without entropy =     -154.69098492  energy(sigma->0) =     -154.69098492
  exchange ACFDT corr.  =        -0.00000000  see jH, gK, PRB 81, 115126


--------------------------------------------------------------------------------------------------------




--------------------------------------- Iteration      1(  69)  ---------------------------------------


    POTLOK:  cpu time      0.8527: real time      0.8557
    SETDIJ:  cpu time      0.0027: real time      0.0027
    TRIAL :  cpu time      5.1706: real time      5.1989
    CORREC:  cpu time      0.0001: real time      0.0003
    CHARGE:  cpu time      0.1100: real time      0.1113
    --------------------------------------------
      LOOP:  cpu time      6.1367: real time      6.1698

 eigenvalue-minimisations  :     0
 total energy-change (2. order) :-0.3390433E-06  (-0.1012587E-05)
 number of electron      51.9999997 magnetization 
 augmentation part        1.2970607 magnetization 

 DIPCOR: dipole corrections for dipol
 direction  1 min pos     1, direction  2 min pos     1, direction  3 min pos     1,
 dipolmoment           0.269222      0.360812      0.663651 electrons x Angstroem
 Tr[quadrupol]        30.764546

 energy correction for charged system         0.000000 eV
 dipol+quadrupol energy correction           -0.002424 eV
 added-field ion interaction         -0.067520 eV  (added to PSCEN)


 Free energy of the ion-electron system (eV)
  ---------------------------------------------------
  alpha Z        PSCENC =         1.37555923
  Ewald energy   TEWEN  =      4270.00355765
  -Hartree energ DENC   =     -5575.62672027
  -exchange      EXHF   =       108.45022759
  -V(xc)+E(xc)   XCENC  =       137.97217789
  PAW double counting   =      4005.55888767    -4014.43073259
  entropy T*S    EENTRO =        -0.00000000
  eigenvalues    EBANDS =      -700.77132919
  atomic energy  EATOM  =      1612.77738675
  ---------------------------------------------------
  free energy    TOTEN  =      -154.69098526 eV

  energy without entropy =     -154.69098526  energy(sigma->0) =     -154.69098526
  exchange ACFDT corr.  =        -0.00000000  see jH, gK, PRB 81, 115126


--------------------------------------------------------------------------------------------------------




--------------------------------------- Iteration      1(  70)  ---------------------------------------


    POTLOK:  cpu time      0.8521: real time      0.8548
    SETDIJ:  cpu time      0.0025: real time      0.0026
    TRIAL :  cpu time      5.1596: real time      5.2127
    CORREC:  cpu time      0.0001: real time      0.0001
    EDDIAG:  cpu time      4.8503: real time      4.8770
    CHARGE:  cpu time      0.1109: real time      0.1121
    --------------------------------------------
      LOOP:  cpu time     10.9758: real time     11.0596

 eigenvalue-minimisations  :     0
 total energy-change (2. order) : 0.1052249E-06  (-0.9442174E-06)
 number of electron      51.9999997 magnetization 
 augmentation part        1.2970610 magnetization 

 DIPCOR: dipole corrections for dipol
 direction  1 min pos     1, direction  2 min pos     1, direction  3 min pos     1,
 dipolmoment           0.269224      0.360823      0.663688 electrons x Angstroem
 Tr[quadrupol]        30.764629

 energy correction for charged system         0.000000 eV
 dipol+quadrupol energy correction           -0.002425 eV
 added-field ion interaction         -0.067523 eV  (added to PSCEN)


 Free energy of the ion-electron system (eV)
  ---------------------------------------------------
  alpha Z        PSCENC =         1.37555563
  Ewald energy   TEWEN  =      4270.00355765
  -Hartree energ DENC   =     -5575.62613790
  -exchange      EXHF   =       108.45022694
  -V(xc)+E(xc)   XCENC  =       137.97214251
  PAW double counting   =      4005.55822428    -4014.43006835
  entropy T*S    EENTRO =        -0.00000000
  eigenvalues    EBANDS =      -700.77185910
  atomic energy  EATOM  =      1612.77738675
  ---------------------------------------------------
  free energy    TOTEN  =      -154.69098515 eV

  energy without entropy =     -154.69098515  energy(sigma->0) =     -154.69098515
  exchange ACFDT corr.  =        -0.00000000  see jH, gK, PRB 81, 115126


--------------------------------------------------------------------------------------------------------


  average scaling for gradient   0.7892


 average (electrostatic) potential at core
  the test charge radii are     0.6991  0.5201  0.7089
  (the norm of the test charge is              1.0000)
       1 -54.5451       2 -54.7609       3 -55.1108       4 -54.8765       5 -55.4566
       6 -56.4514       7 -55.4749       8 -56.3482       9 -38.4082      10 -37.9957
      11 -37.9013      12 -38.1131      13 -38.2578      14 -38.4898      15 -38.4531
      16 -38.7265      17 -38.5066      18 -38.7862      19 -38.7663      20 -39.4693
      21 -39.0932      22 -39.0244      23 -39.0158      24 -68.7824
 
 
 
 E-fermi :  -7.9744     XC(G=0):  -0.2658     alpha+bet : -0.1642

 Fermi energy:        -7.9744021120

 k-point     1 :       0.0000    0.0000    0.0000
  band No.  band energies     occupation 
      1     -24.7887      2.00000
      2     -23.3372      2.00000
      3     -21.9970      2.00000
      4     -19.9835      2.00000
      5     -18.9708      2.00000
      6     -17.9142      2.00000
      7     -16.9236      2.00000
      8     -15.3731      2.00000
      9     -14.4091      2.00000
     10     -13.3351      2.00000
     11     -12.7766      2.00000
     12     -12.1458      2.00000
     13     -11.4546      2.00000
     14     -11.4197      2.00000
     15     -11.2081      2.00000
     16     -10.9256      2.00000
     17     -10.6133      2.00000
     18     -10.3180      2.00000
     19      -9.8415      2.00000
     20      -9.6484      2.00000
     21      -9.6319      2.00000
     22      -9.0889      2.00000
     23      -8.8819      2.00000
     24      -8.6307      2.00000
     25      -8.5587      2.00000
     26      -8.2100      2.00000
     27      -0.4827      0.00000
     28      -0.1048      0.00000
     29       0.0559      0.00000
     30       0.1388      0.00000
     31       0.2310      0.00000
     32       0.3850      0.00000
     33       0.4438      0.00000
     34       0.4938      0.00000
     35       0.5578      0.00000
     36       0.5799      0.00000
     37       0.6123      0.00000
     38       0.6452      0.00000
     39       0.7043      0.00000
     40       0.7274      0.00000


--------------------------------------------------------------------------------------------------------


 soft charge-density along one line, spin component           1
         0         1         2         3         4         5         6         7         8         9
 total charge-density along one line
 
 pseudopotential strength for first ion, spin component:           1
  9.960  13.240  -0.000  -0.000   0.000   0.001   0.002   0.000
 13.240  17.599  -0.000  -0.001   0.000   0.001   0.002   0.000
 -0.000  -0.000  -4.244   0.001   0.000   8.322  -0.002  -0.001
 -0.000  -0.001   0.001  -4.243  -0.001  -0.002   8.320   0.001
  0.000   0.000   0.000  -0.001  -4.243  -0.001   0.001   8.321
  0.001   0.001   8.322  -0.002  -0.001 -18.440   0.004   0.001
  0.002   0.002  -0.002   8.320   0.001   0.004 -18.439  -0.002
  0.000   0.000  -0.001   0.001   8.321   0.001  -0.002 -18.440
 total augmentation occupancy for first ion, spin component:           1
  7.331  -3.118  -0.004  -0.023  -0.019  -0.009  -0.002  -0.004
 -3.118   1.349   0.000   0.013  -0.006   0.007   0.001   0.002
 -0.004   0.000   1.623  -0.025  -0.004   0.135  -0.006   0.002
 -0.023   0.013  -0.025   1.571   0.022  -0.006   0.124   0.003
 -0.019  -0.006  -0.004   0.022   1.577   0.002   0.003   0.126
 -0.009   0.007   0.135  -0.006   0.002   0.012  -0.001   0.001
 -0.002   0.001  -0.006   0.124   0.003  -0.001   0.010   0.000
 -0.004   0.002   0.002   0.003   0.126   0.001   0.000   0.010


------------------------ aborting loop because EDIFF is reached ----------------------------------------





 total charge

# of ion       s       p       d       tot
------------------------------------------
    1        0.835   1.779   0.000   2.614
    2        0.839   1.796   0.000   2.635
    3        0.839   1.809   0.000   2.648
    4        0.839   1.781   0.000   2.620
    5        0.846   1.807   0.000   2.653
    6        0.833   1.811   0.000   2.643
    7        0.841   1.778   0.000   2.619
    8        0.947   1.805   0.000   2.752
    9        0.662   0.048   0.000   0.710
   10        0.633   0.039   0.000   0.671
   11        0.626   0.039   0.000   0.665
   12        0.636   0.038   0.000   0.675
   13        0.654   0.045   0.000   0.699
   14        0.655   0.042   0.000   0.696
   15        0.641   0.042   0.000   0.683
   16        0.650   0.044   0.000   0.694
   17        0.644   0.042   0.000   0.687
   18        0.633   0.038   0.000   0.671
   19        0.638   0.040   0.000   0.679
   20        0.624   0.040   0.000   0.664
   21        0.651   0.046   0.000   0.698
   22        0.652   0.046   0.000   0.698
   23        0.643   0.043   0.000   0.685
   24        1.329   2.488   0.000   3.816
--------------------------------------------------
tot         17.788  17.486   0.000  35.274
 
    FORLOC:  cpu time      0.0543: real time      0.0545
    FORHF :  cpu time      2.8017: real time      2.8166
    FORNL :  cpu time      0.1043: real time      0.1054
    FORCOR:  cpu time      0.8136: real time      0.8161
    OFIELD:  cpu time      0.0019: real time      0.0020

 VOLUME and BASIS-vectors are now :
 -----------------------------------------------------------------------------
  energy-cutoff  :      500.00
  volume of cell :     8000.00
      direct lattice vectors                 reciprocal lattice vectors
    20.000000000  0.000000000  0.000000000     0.050000000  0.000000000  0.000000000
     0.000000000 20.000000000  0.000000000     0.000000000  0.050000000  0.000000000
     0.000000000  0.000000000 20.000000000     0.000000000  0.000000000  0.050000000

  length of vectors
    20.000000000 20.000000000 20.000000000     0.050000000  0.050000000  0.050000000


 FORCES acting on ions:
    Electron-Ion                     Ewald-Force                    Non-Local-Force
 -----------------------------------------------------------------------------------------------
   -.165E+03 -.120E+03 -.290E+01   0.166E+03 0.121E+03 0.362E+01   0.163E+01 0.713E+00 -.269E-01
   -.144E+03 0.652E+02 -.869E+02   0.144E+03 -.657E+02 0.876E+02   0.165E+01 -.138E+00 0.242E+00
   -.660E+02 0.800E+02 0.105E+03   0.667E+02 -.806E+02 -.105E+03   -.463E-01 -.829E+00 -.742E+00
   0.302E+02 0.220E+03 0.201E+01   -.298E+02 -.220E+03 -.219E+01   0.190E+00 -.896E+00 -.549E+00
   0.361E+02 -.209E+02 0.164E+03   -.344E+02 0.204E+02 -.166E+03   -.102E+01 0.829E+00 -.131E+01
   0.135E+03 0.288E+02 -.323E+02   -.138E+03 -.311E+02 0.285E+02   0.565E+00 0.212E+01 0.379E+01
   0.174E+03 -.112E+03 0.652E+02   -.175E+03 0.113E+03 -.656E+02   0.337E+00 -.128E+01 0.223E+00
   0.826E+02 -.273E+02 -.603E+02   -.836E+02 0.259E+02 0.586E+02   0.138E+01 0.170E+01 0.312E+01
   -.414E+01 -.688E+02 0.331E+02   0.793E+00 0.729E+02 -.357E+02   0.316E+01 -.382E+01 0.273E+01
   -.779E+02 -.146E+02 0.307E+02   0.815E+02 0.145E+02 -.330E+02   -.442E+01 0.665E-01 0.242E+01
   -.453E+02 -.385E+02 -.575E+02   0.462E+02 0.403E+02 0.611E+02   -.128E+01 -.186E+01 -.457E+01
   -.760E+02 0.508E+02 -.809E+01   0.791E+02 -.536E+02 0.806E+01   -.391E+01 0.313E+01 0.260E+00
   -.841E+01 0.228E+02 -.820E+02   0.639E+01 -.234E+02 0.870E+02   0.165E+01 0.452E+00 -.526E+01
   -.486E+02 0.198E+02 0.812E+02   0.513E+02 -.202E+02 -.855E+02   -.281E+01 0.589E+00 0.447E+01
   -.471E+02 0.703E+02 -.145E+02   0.508E+02 -.731E+02 0.159E+02   -.432E+01 0.277E+01 -.133E+01
   0.468E+02 0.458E+02 -.479E+02   -.505E+02 -.462E+02 0.518E+02   0.374E+01 0.169E+00 -.402E+01
   0.223E+02 0.595E+02 0.582E+02   -.242E+02 -.618E+02 -.622E+02   0.157E+01 0.209E+01 0.463E+01
   0.403E+02 0.268E+02 0.798E+02   -.425E+02 -.284E+02 -.829E+02   0.247E+01 0.201E+01 0.389E+01
   -.220E+02 -.617E+02 0.620E+02   0.236E+02 0.655E+02 -.638E+02   -.209E+01 -.414E+01 0.225E+01
   0.658E+02 0.587E+02 -.250E+02   -.680E+02 -.622E+02 0.265E+02   0.299E+01 0.404E+01 -.118E+01
   0.262E+01 -.775E+02 0.298E+02   -.343E+00 0.825E+02 -.312E+02   -.242E+01 -.489E+01 0.153E+01
   0.756E+02 -.223E+02 -.321E+02   -.799E+02 0.233E+02 0.355E+02   0.419E+01 -.587E+00 -.372E+01
   0.537E+02 0.104E+02 0.633E+02   -.556E+02 -.125E+02 -.674E+02   0.183E+01 0.241E+01 0.445E+01
   -.490E+02 -.181E+03 -.303E+03   0.655E+02 0.200E+03 0.336E+03   -.157E+02 -.178E+02 -.307E+02
 -----------------------------------------------------------------------------------------------
   0.117E+02 0.145E+02 0.214E+02   -.568E-13 0.853E-13 0.171E-12   -.107E+02 -.132E+02 -.194E+02
 
 
 POSITION                                       TOTAL-FORCE (eV/Angst)
 -----------------------------------------------------------------------------------
     12.17474     10.90718     10.36924         2.302499      1.247278      0.692775
     11.59045      9.53754     10.53939         2.002896     -0.556755      0.924275
     10.62963      9.13365      9.48281         0.632156     -1.511966     -0.473779
     10.14047      7.73191      9.79862         0.554453     -0.847860     -0.763489
      9.52151     10.06659      9.19022         0.653305      0.321908     -3.383921
      8.56635     10.42151     10.23770        -2.283015     -0.090437      0.223242
      7.55174     11.39714      9.61404        -0.640951     -0.491368     -0.236781
      9.15128     11.06673     11.37958         0.573245      0.412314      1.774975
     11.54787     11.62328      9.84480        -0.064823      0.071535      0.243535
     13.15479     10.87670      9.81144        -0.957468     -0.010270      0.288930
     12.45772     11.32082     11.38200        -0.445630     -0.130839     -1.116144
     12.46246      8.81774     10.47409        -0.925975      0.517810      0.243133
     11.22749      9.43710     11.57400        -0.306469     -0.131276     -0.484986
     11.21350      9.02307      8.54141        -0.245353      0.248800      0.376326
     11.04287      7.14843     10.08772        -0.822537      0.059803      0.062163
      9.38609      7.70812     10.59744         0.223543     -0.216594     -0.316057
      9.78783      7.29592      8.84074        -0.323492     -0.093513      0.798503
      8.94132      9.60986      8.32950         0.406849      0.475001      0.879509
      9.96690     10.99003      8.72516        -0.552295     -0.565954      0.538682
      7.93073      9.52986     10.52094         0.974331      0.748517      0.190290
      8.02676     12.33877      9.32695        -0.237652     -0.062510      0.197063
      6.73727     11.51962     10.33614         0.032513      0.447165     -0.423234
      7.17644     10.89362      8.69904        -0.054864      0.500481      0.506752
      9.61377     11.60483     12.29702        -0.495266     -0.341268     -0.741761
 -----------------------------------------------------------------------------------
    total drift:                               -0.000062      0.000020     -0.000940


--------------------------------------------------------------------------------------------------------



  FREE ENERGIE OF THE ION-ELECTRON SYSTEM (eV)
  ---------------------------------------------------
  free  energy   TOTEN  =      -154.69098515 eV

  energy  without entropy=     -154.69098515  energy(sigma->0) =     -154.69098515
 


--------------------------------------------------------------------------------------------------------


    POTLOK:  cpu time      0.8579: real time      0.8614


--------------------------------------------------------------------------------------------------------


 writing wavefunctions
     LOOP+:  cpu time    434.6609: real time    441.7363
    4ORBIT:  cpu time      0.0000: real time      0.0000



 total charge

# of ion       s       p       d       tot
------------------------------------------
    1        0.835   1.779   0.000   2.614
    2        0.839   1.796   0.000   2.635
    3        0.839   1.809   0.000   2.648
    4        0.839   1.781   0.000   2.620
    5        0.846   1.807   0.000   2.653
    6        0.833   1.811   0.000   2.643
    7        0.841   1.778   0.000   2.619
    8        0.947   1.805   0.000   2.752
    9        0.662   0.048   0.000   0.710
   10        0.633   0.039   0.000   0.671
   11        0.626   0.039   0.000   0.665
   12        0.636   0.038   0.000   0.675
   13        0.654   0.045   0.000   0.699
   14        0.655   0.042   0.000   0.696
   15        0.641   0.042   0.000   0.683
   16        0.650   0.044   0.000   0.694
   17        0.644   0.042   0.000   0.687
   18        0.633   0.038   0.000   0.671
   19        0.638   0.040   0.000   0.679
   20        0.624   0.040   0.000   0.664
   21        0.651   0.046   0.000   0.698
   22        0.652   0.046   0.000   0.698
   23        0.643   0.043   0.000   0.685
   24        1.329   2.488   0.000   3.816
--------------------------------------------------
tot         17.788  17.486   0.000  35.274
 

 total amount of memory used by VASP MPI-rank0   755111. kBytes
=======================================================================

   base      :      30000. kBytes
   nonl-proj :      29279. kBytes
   fftplans  :      75720. kBytes
   grid      :      92179. kBytes
   one-center:         18. kBytes
   HF        :          9. kBytes
   nonlr-proj:       1006. kBytes
   wavefun   :      12207. kBytes
   fock_wrk  :     514693. kBytes
 
  
  
 General timing and accounting informations for this job:
 ========================================================
  
                  Total CPU time used (sec):      452.151
                            User time (sec):      398.277
                          System time (sec):       53.874
                         Elapsed time (sec):      464.436
  
                   Maximum memory used (kb):     1243392.
                   Average memory used (kb):          N/A
  
                          Minor page faults:      1672346
                          Major page faults:           46
                 Voluntary context switches:        15853
