Molecule_POSCAR_08
1.0
20.000000 0.000000 0.000000
0.000000 20.000000 0.000000
0.000000 0.000000 20.000000
C H N
8 15 1
Cartesian
12.174739 10.907178 10.369238
11.590449 9.537540 10.539393
10.629630 9.133654 9.482810
10.140473 7.731911 9.798619
9.521508 10.066595 9.190223
8.566353 10.421505 10.237698
7.551737 11.397136 9.614037
9.151278 11.066729 11.379577
11.547874 11.623277 9.844803
13.154791 10.876703 9.811444
12.457717 11.320817 11.382004
12.462465 8.817740 10.474092
11.227493 9.437102 11.573999
11.213502 9.023072 8.541413
11.042871 7.148426 10.087722
9.386093 7.708123 10.597436
9.787826 7.295920 8.840739
8.941315 9.609855 8.329500
9.966900 10.990027 8.725159
7.930734 9.529860 10.520936
8.026764 12.338766 9.326954
6.737270 11.519617 10.336141
7.176444 10.893620 8.699036
9.613773 11.604828 12.297024
