Molecule_POSCAR_04                      
   1.00000000000000     
    30.0000000000000000    0.0000000000000000    0.0000000000000000
     0.0000000000000000   30.0000000000000000    0.0000000000000000
     0.0000000000000000    0.0000000000000000   30.0000000000000000
   C    Cl   H    N    O 
    36     4    22     4     4
Direct
  0.6944482333333326  0.5177945333333298  0.5307746666666660
  0.7326556333333301  0.5692507666666700  0.4782008999999974
  0.7737537666666654  0.5678533333333320  0.4968302666666702
  0.8099757999999966  0.5921396666666681  0.4794328666666701
  0.8048441999999980  0.6183720000000008  0.4425749333333329
  0.7632480999999984  0.6198571333333334  0.4236263333333312
  0.7275973333333354  0.5964184333333336  0.4401335333333307
  0.6565546333333359  0.4926366333333334  0.5486555666666675
  0.6642656333333363  0.4665851666666683  0.5862916999999968
  0.6304874666666649  0.4418956666666674  0.6052273999999969
  0.6404215666666673  0.4167228000000023  0.6426038000000034
  0.6081166666666675  0.3912976333333305  0.6631126999999992
  0.5660610999999989  0.3917406333333346  0.6453994000000023
  0.5556102333333328  0.4170782333333349  0.6075941666666651
  0.5878732666666693  0.4427046333333351  0.5868018666666686
  0.5788826666666651  0.4681302999999986  0.5494740666666686
  0.5345892666666643  0.4693988000000004  0.5297763333333307
  0.4457387666666648  0.4288206666666667  0.4882204333333320
  0.4043732333333310  0.4357474333333329  0.4642144000000030
  0.3790137000000016  0.4735911333333362  0.4750092000000024
  0.3387990666666667  0.4815874000000022  0.4526144333333306
  0.3095336000000017  0.5191001999999969  0.4603971666666666
  0.2899172666666701  0.5905087666666660  0.5007670000000033
  0.2508398666666665  0.5998154999999983  0.4801037000000008
  0.2244865999999988  0.6371928666666662  0.4898298000000025
  0.2390867333333304  0.6659768666666679  0.5220944333333364
  0.2787232000000017  0.6570837666666662  0.5434695000000005
  0.3039769333333311  0.6202470333333352  0.5333737999999997
  0.3255326666666676  0.4513250333333332  0.4202342000000030
  0.3503358666666685  0.4141719333333356  0.4095705000000009
  0.3340547999999970  0.3856231999999977  0.3763580999999974
  0.3592885666666632  0.3487156999999996  0.3661859333333339
  0.3986655666666650  0.3409535666666699  0.3881654666666634
  0.4144867999999988  0.3695137666666639  0.4210612666666691
  0.3898755333333312  0.4062358999999987  0.4315331333333319
  0.6143994999999975  0.4925606666666695  0.5315886333333353
  0.8628793666666681  0.5898395999999977  0.5040797999999995
  0.6746779333333350  0.5991193333333342  0.4149542999999980
  0.1744261666666631  0.6477253333333337  0.4622993666666702
  0.3537689999999998  0.6124006000000008  0.5627583999999999
  0.6645925999999989  0.5496863333333337  0.4763766000000018
  0.7823832333333343  0.5487157999999965  0.5257149999999982
  0.8331380666666632  0.6370658666666671  0.4293505999999994
  0.7587267666666691  0.6404334666666642  0.3945134000000010
  0.6966669333333328  0.4647994999999980  0.6018504000000036
  0.6734724000000014  0.4159152000000006  0.6571333999999993
  0.6144068999999988  0.3711325333333306  0.6923735666666673
  0.5403773000000029  0.3719876999999983  0.6610944999999973
  0.5218651666666645  0.4154334999999989  0.5960285000000027
  0.5314202666666645  0.4907393000000013  0.5002242333333342
  0.4661836000000008  0.4004531333333361  0.4811500666666646
  0.4136481999999972  0.5105745666666692  0.5276219666666648
  0.3466650000000016  0.5503146333333362  0.5104202666666637
  0.2364482666666632  0.5791983000000016  0.4541968333333344
  0.2195666333333364  0.6954597000000007  0.5306656333333351
  0.2900608333333352  0.6802753666666632  0.5691628666666659
  0.2943009000000032  0.4572270999999972  0.4026072666666636
  0.3028390999999999  0.3934541666666647  0.3602078666666699
  0.3469782666666674  0.3260622000000026  0.3402612333333366
  0.4189116666666663  0.3122731666666638  0.3807132000000024
  0.4454993666666667  0.3625334666666689  0.4377142333333310
  0.5788505333333305  0.5215139333333312  0.4787684333333360
  0.6954242999999991  0.5457472666666661  0.4941559999999967
  0.4997581000000011  0.4494152333333332  0.5420727999999997
  0.4601398333333364  0.4551323666666676  0.5183857333333322
  0.3167326333333307  0.5528787666666659  0.4911655000000010
  0.7313204333333303  0.5128939000000017  0.5522829333333306
  0.3930365666666660  0.5016424666666666  0.5062451666666661
  0.2739120000000028  0.5216210000000032  0.4370867000000018
  0.6064079000000007  0.5176874666666649  0.4950614666666695
 
  0.00000000E+00  0.00000000E+00  0.00000000E+00
  0.00000000E+00  0.00000000E+00  0.00000000E+00
  0.00000000E+00  0.00000000E+00  0.00000000E+00
  0.00000000E+00  0.00000000E+00  0.00000000E+00
  0.00000000E+00  0.00000000E+00  0.00000000E+00
  0.00000000E+00  0.00000000E+00  0.00000000E+00
  0.00000000E+00  0.00000000E+00  0.00000000E+00
  0.00000000E+00  0.00000000E+00  0.00000000E+00
  0.00000000E+00  0.00000000E+00  0.00000000E+00
  0.00000000E+00  0.00000000E+00  0.00000000E+00
  0.00000000E+00  0.00000000E+00  0.00000000E+00
  0.00000000E+00  0.00000000E+00  0.00000000E+00
  0.00000000E+00  0.00000000E+00  0.00000000E+00
  0.00000000E+00  0.00000000E+00  0.00000000E+00
  0.00000000E+00  0.00000000E+00  0.00000000E+00
  0.00000000E+00  0.00000000E+00  0.00000000E+00
  0.00000000E+00  0.00000000E+00  0.00000000E+00
  0.00000000E+00  0.00000000E+00  0.00000000E+00
  0.00000000E+00  0.00000000E+00  0.00000000E+00
  0.00000000E+00  0.00000000E+00  0.00000000E+00
  0.00000000E+00  0.00000000E+00  0.00000000E+00
  0.00000000E+00  0.00000000E+00  0.00000000E+00
  0.00000000E+00  0.00000000E+00  0.00000000E+00
  0.00000000E+00  0.00000000E+00  0.00000000E+00
  0.00000000E+00  0.00000000E+00  0.00000000E+00
  0.00000000E+00  0.00000000E+00  0.00000000E+00
  0.00000000E+00  0.00000000E+00  0.00000000E+00
  0.00000000E+00  0.00000000E+00  0.00000000E+00
  0.00000000E+00  0.00000000E+00  0.00000000E+00
  0.00000000E+00  0.00000000E+00  0.00000000E+00
  0.00000000E+00  0.00000000E+00  0.00000000E+00
  0.00000000E+00  0.00000000E+00  0.00000000E+00
  0.00000000E+00  0.00000000E+00  0.00000000E+00
  0.00000000E+00  0.00000000E+00  0.00000000E+00
  0.00000000E+00  0.00000000E+00  0.00000000E+00
  0.00000000E+00  0.00000000E+00  0.00000000E+00
  0.00000000E+00  0.00000000E+00  0.00000000E+00
  0.00000000E+00  0.00000000E+00  0.00000000E+00
  0.00000000E+00  0.00000000E+00  0.00000000E+00
  0.00000000E+00  0.00000000E+00  0.00000000E+00
  0.00000000E+00  0.00000000E+00  0.00000000E+00
  0.00000000E+00  0.00000000E+00  0.00000000E+00
  0.00000000E+00  0.00000000E+00  0.00000000E+00
  0.00000000E+00  0.00000000E+00  0.00000000E+00
  0.00000000E+00  0.00000000E+00  0.00000000E+00
  0.00000000E+00  0.00000000E+00  0.00000000E+00
  0.00000000E+00  0.00000000E+00  0.00000000E+00
  0.00000000E+00  0.00000000E+00  0.00000000E+00
  0.00000000E+00  0.00000000E+00  0.00000000E+00
  0.00000000E+00  0.00000000E+00  0.00000000E+00
  0.00000000E+00  0.00000000E+00  0.00000000E+00
  0.00000000E+00  0.00000000E+00  0.00000000E+00
  0.00000000E+00  0.00000000E+00  0.00000000E+00
  0.00000000E+00  0.00000000E+00  0.00000000E+00
  0.00000000E+00  0.00000000E+00  0.00000000E+00
  0.00000000E+00  0.00000000E+00  0.00000000E+00
  0.00000000E+00  0.00000000E+00  0.00000000E+00
  0.00000000E+00  0.00000000E+00  0.00000000E+00
  0.00000000E+00  0.00000000E+00  0.00000000E+00
  0.00000000E+00  0.00000000E+00  0.00000000E+00
  0.00000000E+00  0.00000000E+00  0.00000000E+00
  0.00000000E+00  0.00000000E+00  0.00000000E+00
  0.00000000E+00  0.00000000E+00  0.00000000E+00
  0.00000000E+00  0.00000000E+00  0.00000000E+00
  0.00000000E+00  0.00000000E+00  0.00000000E+00
  0.00000000E+00  0.00000000E+00  0.00000000E+00
  0.00000000E+00  0.00000000E+00  0.00000000E+00
  0.00000000E+00  0.00000000E+00  0.00000000E+00
  0.00000000E+00  0.00000000E+00  0.00000000E+00
  0.00000000E+00  0.00000000E+00  0.00000000E+00
