       N       E                     dE             d eps       ncg     rms          ort
SDA:   1    -0.577972978786E+03   -0.57797E+03    0.00000E+00   156   0.151E+01 0.000E+00
CGA:   2    -0.578566100542E+03   -0.59312E+00   -0.58761E+00   156   0.482E+00 0.293E-01
CGA:   3    -0.578683800846E+03   -0.11770E+00   -0.11764E+00   156   0.187E+00 0.140E-02
CGA:   4    -0.578731558215E+03   -0.47757E-01   -0.47675E-01   156   0.644E-01 0.123E-02
CGA:   5    -0.578749528047E+03   -0.17970E-01   -0.17933E-01   156   0.337E-01 0.399E-03
CGA:   6    -0.578758643676E+03   -0.91156E-02   -0.91041E-02   156   0.136E-01 0.162E-03
CGA:   7    -0.578762787903E+03   -0.41442E-02   -0.41384E-02   156   0.586E-02 0.590E-04
CGA:   8    -0.578764450174E+03   -0.16623E-02   -0.16610E-02   156   0.221E-02 0.231E-04
CGA:   9    -0.578765072785E+03   -0.62261E-03   -0.62229E-03   156   0.794E-03 0.977E-05
CGA:  10    -0.578765304972E+03   -0.23219E-03   -0.23217E-03   156   0.311E-03 0.367E-05
CGA:  11    -0.578765406989E+03   -0.10202E-03   -0.10207E-03   156   0.155E-03 0.206E-05
CGA:  12    -0.578765459814E+03   -0.52825E-04   -0.53101E-04   156   0.855E-04-0.268E-06
CGA:  13    -0.578765487683E+03   -0.27869E-04   -0.28302E-04   156   0.496E-04-0.217E-05
CGA:  14    -0.578765501021E+03   -0.13337E-04   -0.13595E-04   156   0.285E-04-0.175E-05
CGA:  15    -0.578765508446E+03   -0.74251E-05   -0.76559E-05   156   0.145E-04-0.122E-05
CGA:  16    -0.578765512614E+03   -0.41686E-05   -0.44775E-05   156   0.838E-05-0.114E-05
CGA:  17    -0.578765514663E+03   -0.20485E-05   -0.22924E-05   156   0.570E-05-0.934E-06
CGA:  18    -0.578765515755E+03   -0.10920E-05   -0.12543E-05   156   0.355E-05-0.625E-06
CGA:  19    -0.578765516369E+03   -0.61456E-06   -0.77642E-06   156   0.230E-05-0.506E-06
   1 F= -.57985546E+03 E0= -.57985546E+03  d E =-.265878E-11
