Molecule_POSCAR_04
1.0
30.000000 0.000000 0.000000
0.000000 30.000000 0.000000
0.000000 0.000000 30.000000
C Cl H N O
36 4 22 4 4
Cartesian
20.833447 15.533836 15.923240
21.979669 17.077523 14.346027
23.212613 17.035600 14.904908
24.299274 17.764190 14.382986
24.145326 18.551160 13.277248
22.897443 18.595714 12.708790
21.827920 17.892553 13.204006
19.696639 14.779099 16.459667
19.927969 13.997555 17.588751
18.914624 13.256870 18.156822
19.212647 12.501684 19.278114
18.243500 11.738929 19.893381
16.981833 11.752219 19.361982
16.668307 12.512347 18.227825
17.636198 13.281139 17.604056
17.366480 14.043909 16.484222
16.037678 14.081964 15.893290
13.372163 12.864620 14.646613
12.131197 13.072423 13.926432
11.370411 14.207734 14.250276
10.163972 14.447622 13.578433
9.286008 15.573006 13.811915
8.697518 17.715263 15.023010
7.525196 17.994465 14.403111
6.734598 19.115786 14.694894
7.172602 19.979306 15.662833
8.361696 19.712513 16.304085
9.119308 18.607411 16.001214
9.765980 13.539751 12.607026
10.510076 12.425158 12.287115
10.021644 11.568696 11.290743
10.778657 10.461471 10.985578
11.959967 10.228607 11.644964
12.434604 11.085413 12.631838
11.696266 12.187077 12.945994
18.431985 14.776820 15.947659
25.886381 17.695188 15.122394
20.240338 17.973580 12.448629
5.232785 19.431760 13.868981
10.613070 18.372018 16.882752
19.937778 16.490590 14.291298
23.471497 16.461474 15.771450
24.994142 19.111976 12.880518
22.761803 19.213004 11.835402
20.900008 13.943985 18.055512
20.204172 12.477456 19.714002
18.432207 11.133976 20.771207
16.211319 11.159631 19.832835
15.655955 12.463005 17.880855
15.942608 14.722179 15.006727
13.985508 12.013594 14.434502
12.409446 15.317237 15.828659
10.399950 16.509439 15.312608
7.093448 17.375949 13.625905
6.586999 20.863791 15.919969
8.701825 20.408261 17.074886
8.829027 13.716813 12.078218
9.085173 11.803625 10.806236
10.409348 9.781866 10.207837
12.567350 9.368195 11.421396
13.364981 10.876004 13.131427
17.365516 15.645418 14.363053
20.862729 16.372418 14.824680
14.992743 13.482457 16.262184
13.804195 13.653971 15.551572
9.501979 16.586363 14.734965
21.939613 15.386817 16.568488
11.791097 15.049274 15.187355
8.217360 15.648630 13.112601
18.192237 15.530624 14.851844
