Molecule_POSCAR_01                      
   1.00000000000000     
    20.0000000000000000    0.0000000000000000    0.0000000000000000
     0.0000000000000000   20.0000000000000000    0.0000000000000000
     0.0000000000000000    0.0000000000000000   20.0000000000000000
   C    H    N    O 
     6    11     1     2
Direct
  0.3882350000000017  0.5725369000000029  0.4432862999999969
  0.4066883500000031  0.5601757000000021  0.5124289999999974
  0.4517066499999984  0.4972579499999981  0.5118828000000022
  0.5106688999999989  0.5135010500000021  0.4696921000000032
  0.5610136000000026  0.4589376500000029  0.4613470500000005
  0.5911338499999985  0.4366903000000022  0.5266110999999967
  0.3629908500000028  0.5524324499999977  0.5454995999999994
  0.4383065999999971  0.6004051999999973  0.5339189999999974
  0.4232835500000007  0.4532152499999995  0.4939619499999992
  0.4229090500000012  0.4794682499999965  0.6018691499999989
  0.5374169500000008  0.5568620000000024  0.4940599000000034
  0.4936793999999978  0.5304141499999986  0.4190794499999981
  0.5336618500000014  0.4162620500000003  0.4361392499999965
  0.6008120999999988  0.4735066499999974  0.4244528500000015
  0.5526466999999968  0.4175172500000031  0.5609327000000022
  0.6285242000000011  0.3957554999999999  0.5173685000000035
  0.6329347499999969  0.5236598999999984  0.5222278500000002
  0.3738517999999971  0.5816937999999965  0.3871350000000007
  0.4672859499999973  0.4887841500000007  0.5804003000000009
  0.6222498500000029  0.4909238999999985  0.5577061999999984
 
  0.00000000E+00  0.00000000E+00  0.00000000E+00
  0.00000000E+00  0.00000000E+00  0.00000000E+00
  0.00000000E+00  0.00000000E+00  0.00000000E+00
  0.00000000E+00  0.00000000E+00  0.00000000E+00
  0.00000000E+00  0.00000000E+00  0.00000000E+00
  0.00000000E+00  0.00000000E+00  0.00000000E+00
  0.00000000E+00  0.00000000E+00  0.00000000E+00
  0.00000000E+00  0.00000000E+00  0.00000000E+00
  0.00000000E+00  0.00000000E+00  0.00000000E+00
  0.00000000E+00  0.00000000E+00  0.00000000E+00
  0.00000000E+00  0.00000000E+00  0.00000000E+00
  0.00000000E+00  0.00000000E+00  0.00000000E+00
  0.00000000E+00  0.00000000E+00  0.00000000E+00
  0.00000000E+00  0.00000000E+00  0.00000000E+00
  0.00000000E+00  0.00000000E+00  0.00000000E+00
  0.00000000E+00  0.00000000E+00  0.00000000E+00
  0.00000000E+00  0.00000000E+00  0.00000000E+00
  0.00000000E+00  0.00000000E+00  0.00000000E+00
  0.00000000E+00  0.00000000E+00  0.00000000E+00
  0.00000000E+00  0.00000000E+00  0.00000000E+00
