 vasp.6.4.2 20Jul23 (build Mar 28 2025 16:44:38) complex                        
  
 executed on             LinuxIFC date 2026.02.17  14:42:24
 running   32 mpi-ranks, on    1 nodes
 distrk:  each k-point on   32 cores,    1 groups
 distr:  one band on NCORE=   4 cores,    8 groups


--------------------------------------------------------------------------------------------------------


 INCAR:
   SYSTEM = QM9_Benchmark_B3LYP_Gap_Dipole
   PREC = Accurate
   ENCUT = 500
   EDIFF = 1E-6
   ISMEAR = 0
   SIGMA = 0.05
   NELM = 100
   IBRION = -1
   NSW = 0
   LHFCALC = .TRUE.
   GGA = B3
   AEXX = 0.20
   AGGAX = 0.72
   AGGAC = 0.81
   ALDAC = 0.19
   ALGO = Damped
   TIME = 0.4
   LDIPOL = .TRUE.
   IDIPOL = 4
   DIPOL = 0.5 0.5 0.5
   LORBIT = 11
   NEDOS = 2000
   ISYM = 0
   LREAL = .FALSE.
   NCORE = 4

 POTCAR:    PAW_PBE C 08Apr2002                   
 POTCAR:    PAW_PBE H 15Jun2001                   
 POTCAR:    PAW_PBE N 08Apr2002                   
 POTCAR:    PAW_PBE O 08Apr2002                   
 POTCAR:    PAW_PBE C 08Apr2002                   
   VRHFIN =C: s2p2                                                                                  
   LEXCH  = PE                                                                                      
   EATOM  =   147.1560 eV,   10.8157 Ry                                                             
                                                                                                    
   TITEL  = PAW_PBE C 08Apr2002                                                                     
   LULTRA =        F    use ultrasoft PP ?                                                          
   IUNSCR =        1    unscreen: 0-lin 1-nonlin 2-no                                               
   RPACOR =    1.200    partial core radius                                                         
   POMASS =   12.011; ZVAL   =    4.000    mass and valenz                                          
   RCORE  =    1.500    outmost cutoff radius                                                       
   RWIGS  =    1.630; RWIGS  =    0.863    wigner-seitz radius (au A)                               
   ENMAX  =  400.000; ENMIN  =  300.000 eV                                                          
   ICORE  =        2    local potential                                                             
   LCOR   =        T    correct aug charges                                                         
   LPAW   =        T    paw PP                                                                      
   EAUG   =  644.873                                                                                
   DEXC   =    0.000                                                                                
   RMAX   =    1.529    core radius for proj-oper                                                   
   RAUG   =    1.300    factor for augmentation sphere                                              
   RDEP   =    1.501    radius for radial grids                                                     
   RDEPT  =    1.300    core radius for aug-charge                                                  
                                                                                                    
   Atomic configuration                                                                             
    4 entries                                                                                       
     n  l   j            E        occ.                                                              
     1  0  0.50      -273.3789   2.0000                                                             
     2  0  0.50       -13.7508   2.0000                                                             
     2  1  0.50        -5.2854   2.0000                                                             
     3  2  1.50        -5.4423   0.0000                                                             
   Description                                                                                      
     l       E           TYP  RCUT    TYP  RCUT                                                     
     0    -13.7508458     23  1.200                                                                 
     0     -8.2022199     23  1.200                                                                 
     1     -5.2854383     23  1.500                                                                 
     1     34.0145650     23  1.500                                                                 
     2     -5.4423304      7  1.500                                                                 
  local pseudopotential read in
  partial core-charges read in
  partial kinetic energy density read in
  atomic valenz-charges read in
  non local Contribution for L=           0  read in
    real space projection operators read in
  non local Contribution for L=           0  read in
    real space projection operators read in
  non local Contribution for L=           1  read in
    real space projection operators read in
  non local Contribution for L=           1  read in
    real space projection operators read in
    PAW grid and wavefunctions read in
 
   number of l-projection  operators is LMAX  =           4
   number of lm-projection operators is LMMAX =           8
 
 POTCAR:    PAW_PBE H 15Jun2001                   
   VRHFIN =H: ultrasoft test                                                                        
   LEXCH  = PE                                                                                      
   EATOM  =    12.4884 eV,    0.9179 Ry                                                             
                                                                                                    
   TITEL  = PAW_PBE H 15Jun2001                                                                     
   LULTRA =        F    use ultrasoft PP ?                                                          
   IUNSCR =        0    unscreen: 0-lin 1-nonlin 2-no                                               
   RPACOR =    0.000    partial core radius                                                         
   POMASS =    1.000; ZVAL   =    1.000    mass and valenz                                          
   RCORE  =    1.100    outmost cutoff radius                                                       
   RWIGS  =    0.700; RWIGS  =    0.370    wigner-seitz radius (au A)                               
   ENMAX  =  250.000; ENMIN  =  200.000 eV                                                          
   RCLOC  =    0.701    cutoff for local pot                                                        
   LCOR   =        T    correct aug charges                                                         
   LPAW   =        T    paw PP                                                                      
   EAUG   =  400.000                                                                                
   RMAX   =    1.123    core radius for proj-oper                                                   
   RAUG   =    1.200    factor for augmentation sphere                                              
   RDEP   =    1.112    radius for radial grids                                                     
   RDEPT  =    0.926    core radius for aug-charge                                                  
                                                                                                    
   Atomic configuration                                                                             
    2 entries                                                                                       
     n  l   j            E        occ.                                                              
     1  0  0.50        -6.4927   1.0000                                                             
     2  1  0.50        -3.4015   0.0000                                                             
   Description                                                                                      
     l       E           TYP  RCUT    TYP  RCUT                                                     
     0     -6.4927494     23  1.100                                                                 
     0      6.8029130     23  1.100                                                                 
     1     -4.0817478     23  1.100                                                                 
  local pseudopotential read in
  atomic valenz-charges read in
  non local Contribution for L=           0  read in
    real space projection operators read in
  non local Contribution for L=           0  read in
    real space projection operators read in
  non local Contribution for L=           1  read in
    real space projection operators read in
    PAW grid and wavefunctions read in
 
   number of l-projection  operators is LMAX  =           3
   number of lm-projection operators is LMMAX =           5
 
 POTCAR:    PAW_PBE N 08Apr2002                   
   VRHFIN =N: s2p3                                                                                  
   LEXCH  = PE                                                                                      
   EATOM  =   264.5486 eV,   19.4438 Ry                                                             
                                                                                                    
   TITEL  = PAW_PBE N 08Apr2002                                                                     
   LULTRA =        F    use ultrasoft PP ?                                                          
   IUNSCR =        1    unscreen: 0-lin 1-nonlin 2-no                                               
   RPACOR =    1.200    partial core radius                                                         
   POMASS =   14.001; ZVAL   =    5.000    mass and valenz                                          
   RCORE  =    1.500    outmost cutoff radius                                                       
   RWIGS  =    1.400; RWIGS  =    0.741    wigner-seitz radius (au A)                               
   ENMAX  =  400.000; ENMIN  =  300.000 eV                                                          
   ICORE  =        2    local potential                                                             
   LCOR   =        T    correct aug charges                                                         
   LPAW   =        T    paw PP                                                                      
   EAUG   =  627.112                                                                                
   DEXC   =    0.000                                                                                
   RMAX   =    1.529    core radius for proj-oper                                                   
   RAUG   =    1.300    factor for augmentation sphere                                              
   RDEP   =    1.514    radius for radial grids                                                     
   RDEPT  =    1.338    core radius for aug-charge                                                  
                                                                                                    
   Atomic configuration                                                                             
    4 entries                                                                                       
     n  l   j            E        occ.                                                              
     1  0  0.50      -384.7179   2.0000                                                             
     2  0  0.50       -18.5828   2.0000                                                             
     2  1  0.50        -7.0898   3.0000                                                             
     3  2  1.50        -6.8029   0.0000                                                             
   Description                                                                                      
     l       E           TYP  RCUT    TYP  RCUT                                                     
     0    -18.5828119     23  1.200                                                                 
     0    -13.5018863     23  1.200                                                                 
     1     -7.0897853     23  1.500                                                                 
     1      9.5240782     23  1.500                                                                 
     2     -6.8029130      7  1.500                                                                 
  local pseudopotential read in
  partial core-charges read in
  partial kinetic energy density read in
  atomic valenz-charges read in
  non local Contribution for L=           0  read in
    real space projection operators read in
  non local Contribution for L=           0  read in
    real space projection operators read in
  non local Contribution for L=           1  read in
    real space projection operators read in
  non local Contribution for L=           1  read in
    real space projection operators read in
    PAW grid and wavefunctions read in
 
   number of l-projection  operators is LMAX  =           4
   number of lm-projection operators is LMMAX =           8
 
 POTCAR:    PAW_PBE O 08Apr2002                   
   VRHFIN =O: s2p4                                                                                  
   LEXCH  = PE                                                                                      
   EATOM  =   432.3788 eV,   31.7789 Ry                                                             
                                                                                                    
   TITEL  = PAW_PBE O 08Apr2002                                                                     
   LULTRA =        F    use ultrasoft PP ?                                                          
   IUNSCR =        1    unscreen: 0-lin 1-nonlin 2-no                                               
   RPACOR =    1.200    partial core radius                                                         
   POMASS =   16.000; ZVAL   =    6.000    mass and valenz                                          
   RCORE  =    1.520    outmost cutoff radius                                                       
   RWIGS  =    1.550; RWIGS  =    0.820    wigner-seitz radius (au A)                               
   ENMAX  =  400.000; ENMIN  =  300.000 eV                                                          
   ICORE  =        2    local potential                                                             
   LCOR   =        T    correct aug charges                                                         
   LPAW   =        T    paw PP                                                                      
   EAUG   =  605.392                                                                                
   DEXC   =    0.000                                                                                
   RMAX   =    1.553    core radius for proj-oper                                                   
   RAUG   =    1.300    factor for augmentation sphere                                              
   RDEP   =    1.550    radius for radial grids                                                     
   RDEPT  =    1.329    core radius for aug-charge                                                  
                                                                                                    
   Atomic configuration                                                                             
    4 entries                                                                                       
     n  l   j            E        occ.                                                              
     1  0  0.50      -514.6923   2.0000                                                             
     2  0  0.50       -23.9615   2.0000                                                             
     2  1  0.50        -9.0305   4.0000                                                             
     3  2  1.50        -9.5241   0.0000                                                             
   Description                                                                                      
     l       E           TYP  RCUT    TYP  RCUT                                                     
     0    -23.9615318     23  1.200                                                                 
     0     -9.5240782     23  1.200                                                                 
     1     -9.0304911     23  1.520                                                                 
     1      8.1634956     23  1.520                                                                 
     2     -9.5240782      7  1.500                                                                 
  local pseudopotential read in
  partial core-charges read in
  partial kinetic energy density read in
  kinetic energy density of atom read in
  atomic valenz-charges read in
  non local Contribution for L=           0  read in
    real space projection operators read in
  non local Contribution for L=           0  read in
    real space projection operators read in
  non local Contribution for L=           1  read in
    real space projection operators read in
  non local Contribution for L=           1  read in
    real space projection operators read in
    PAW grid and wavefunctions read in
 
   number of l-projection  operators is LMAX  =           4
   number of lm-projection operators is LMMAX =           8
 
 -----------------------------------------------------------------------------
|                                                                             |
|               ----> ADVICE to this user running VASP <----                  |
|                                                                             |
|     You have a (more or less) 'large supercell' and for larger cells it     |
|     might be more efficient to use real-space projection operators.         |
|     Therefore, try LREAL= Auto in the INCAR file.                           |
|     Mind: For very accurate calculation, you might also keep the            |
|     reciprocal projection scheme (i.e. LREAL=.FALSE.).                      |
|                                                                             |
 -----------------------------------------------------------------------------

 -----------------------------------------------------------------------------
|                                                                             |
|               ----> ADVICE to this user running VASP <----                  |
|                                                                             |
|     You enforced a specific xc type in the INCAR file but a different       |
|     type was found in the POTCAR file.                                      |
|     I HOPE YOU KNOW WHAT YOU ARE DOING!                                     |
|                                                                             |
 -----------------------------------------------------------------------------

  PAW_PBE C 08Apr2002                   :
 energy of atom  1       EATOM= -147.1560
 kinetic energy error for atom=    0.0076 (will be added to EATOM!!)
  PAW_PBE H 15Jun2001                   :
 energy of atom  2       EATOM=  -12.4884
 kinetic energy error for atom=    0.0020 (will be added to EATOM!!)
  PAW_PBE N 08Apr2002                   :
 energy of atom  3       EATOM= -264.5486
 kinetic energy error for atom=    0.0138 (will be added to EATOM!!)
  PAW_PBE O 08Apr2002                   :
 energy of atom  4       EATOM= -432.3788
 kinetic energy error for atom=    0.0224 (will be added to EATOM!!)
 
 
 POSCAR: Molecule_POSCAR_01
  positions in cartesian coordinates
  No initial velocities read in
 exchange correlation table for  LEXCH =       11
   RHO(1)=    0.500       N(1)  =     2000
   RHO(2)=  100.500       N(2)  =     4000
 


--------------------------------------------------------------------------------------------------------


 ion  position               nearest neighbor table
   1  0.388  0.573  0.443-  18 1.17   2 1.45
   2  0.407  0.560  0.512-   7 1.11   8 1.11   1 1.45   3 1.55
   3  0.452  0.497  0.512-   9 1.11  19 1.42   4 1.49   2 1.55
   4  0.511  0.514  0.470-  12 1.12  11 1.13   3 1.49   5 1.49
   5  0.561  0.459  0.461-  14 1.12  13 1.13   4 1.49   6 1.50
   6  0.591  0.437  0.527-  15 1.10  16 1.12  20 1.40   5 1.50
   7  0.363  0.552  0.545-   2 1.11
   8  0.438  0.600  0.534-   2 1.11
   9  0.423  0.453  0.494-   3 1.11
  10  0.423  0.479  0.602-  19 1.00
  11  0.537  0.557  0.494-   4 1.13
  12  0.494  0.530  0.419-   4 1.12
  13  0.534  0.416  0.436-   5 1.13
  14  0.601  0.474  0.424-   5 1.12
  15  0.553  0.418  0.561-   6 1.10
  16  0.629  0.396  0.517-   6 1.12
  17  0.633  0.524  0.522-  20 0.99
  18  0.374  0.582  0.387-   1 1.17
  19  0.467  0.489  0.580-  10 1.00   3 1.42
  20  0.622  0.491  0.558-  17 0.99   6 1.40
 

IMPORTANT INFORMATION: All symmetrisations will be switched off!
NOSYMM: (Re-)initialisation of all symmetry stuff for point group C_1.


----------------------------------------------------------------------------------------

                                     Primitive cell                                     

  volume of cell :    8000.0000

  direct lattice vectors                    reciprocal lattice vectors
    20.000000000  0.000000000  0.000000000     0.050000000  0.000000000  0.000000000
     0.000000000 20.000000000  0.000000000     0.000000000  0.050000000  0.000000000
     0.000000000  0.000000000 20.000000000     0.000000000  0.000000000  0.050000000

  length of vectors
    20.000000000 20.000000000 20.000000000     0.050000000  0.050000000  0.050000000

  position of ions in fractional coordinates (direct lattice)
     0.388235000  0.572536900  0.443286300
     0.406688350  0.560175700  0.512429000
     0.451706650  0.497257950  0.511882800
     0.510668900  0.513501050  0.469692100
     0.561013600  0.458937650  0.461347050
     0.591133850  0.436690300  0.526611100
     0.362990850  0.552432450  0.545499600
     0.438306600  0.600405200  0.533919000
     0.423283550  0.453215250  0.493961950
     0.422909050  0.479468250  0.601869150
     0.537416950  0.556862000  0.494059900
     0.493679400  0.530414150  0.419079450
     0.533661850  0.416262050  0.436139250
     0.600812100  0.473506650  0.424452850
     0.552646700  0.417517250  0.560932700
     0.628524200  0.395755500  0.517368500
     0.632934750  0.523659900  0.522227850
     0.373851800  0.581693800  0.387135000
     0.467285950  0.488784150  0.580400300
     0.622249850  0.490923900  0.557706200

  ion indices of the primitive-cell ions
   primitive index   ion index
                 1           1
                 2           2
                 3           3
                 4           4
                 5           5
                 6           6
                 7           7
                 8           8
                 9           9
                10          10
                11          11
                12          12
                13          13
                14          14
                15          15
                16          16
                17          17
                18          18
                19          19
                20          20

----------------------------------------------------------------------------------------

 
 
 KPOINTS: Gamma-point only                        

Automatic generation of k-mesh.
 Grid dimensions read from file:
 generate k-points for:    1    1    1

 Generating k-lattice:

  Cartesian coordinates                     Fractional coordinates (reciprocal lattice)
     0.050000000  0.000000000  0.000000000     1.000000000  0.000000000  0.000000000
     0.000000000  0.050000000  0.000000000     0.000000000  1.000000000  0.000000000
     0.000000000  0.000000000  0.050000000     0.000000000  0.000000000  1.000000000

  Length of vectors
     0.050000000  0.050000000  0.050000000

  Shift w.r.t. Gamma in fractional coordinates (k-lattice)
     0.000000000  0.000000000  0.000000000

 
 Subroutine IBZKPT returns following result:
 ===========================================
 
 Found      1 irreducible k-points:
 
 Following reciprocal coordinates:
            Coordinates               Weight
  0.000000  0.000000  0.000000      1.000000
 
 Following cartesian coordinates:
            Coordinates               Weight
  0.000000  0.000000  0.000000      1.000000
 
 
 Subroutine IBZKPT_HF returns following result:
 ==============================================
 
 Found      1 k-points in 1st BZ
 the following      1 k-points will be used (e.g. in the exchange kernel)
 Following reciprocal coordinates:   # in IRBZ
  0.000000  0.000000  0.000000    1.00000000   1 t-inv F


--------------------------------------------------------------------------------------------------------




 Dimension of arrays:
   k-points           NKPTS =      1   k-points in BZ     NKDIM =      1   number of bands    NBANDS=     40
   number of dos      NEDOS =   2000   number of ions     NIONS =     20
   non local maximal  LDIM  =      4   non local SUM 2l+1 LMDIM =      8
   total plane-waves  NPLWV = ******
   max r-space proj   IRMAX =      1   max aug-charges    IRDMAX=   5672
   dimension x,y,z NGX =   150 NGY =  150 NGZ =  150
   dimension x,y,z NGXF=   300 NGYF=  300 NGZF=  300
   support grid    NGXF=   300 NGYF=  300 NGZF=  300
   ions per type =               6  11   1   2
   NGX,Y,Z   is equivalent  to a cutoff of  12.47, 12.47, 12.47 a.u.
   NGXF,Y,Z  is equivalent  to a cutoff of  24.94, 24.94, 24.94 a.u.

 SYSTEM =  QM9_Benchmark_B3LYP_Gap_Dipole          
 POSCAR =  Molecule_POSCAR_01                      

 Startparameter for this run:
   NWRITE =      2    write-flag & timer
   PREC   = accura    normal or accurate (medium, high low for compatibility)
   ISTART =      0    job   : 0-new  1-cont  2-samecut
   ICHARG =      2    charge: 1-file 2-atom 10-const
   ISPIN  =      1    spin polarized calculation?
   LNONCOLLINEAR =      F non collinear calculations
   LSORBIT =      F    spin-orbit coupling
   INIWAV =      1    electr: 0-lowe 1-rand  2-diag
   LASPH  =      F    aspherical Exc in radial PAW
 Electronic Relaxation 1
   ENCUT  =  500.0 eV  36.75 Ry    6.06 a.u.  36.46 36.46 36.46*2*pi/ulx,y,z
   ENINI  =  500.0     initial cutoff
   ENAUG  =  644.9 eV  augmentation charge cutoff
   NELM   =    100;   NELMIN=  2; NELMDL=  0     # of ELM steps 
   EDIFF  = 0.1E-05   stopping-criterion for ELM
   LREAL  =      F    real-space projection
   NLSPLINE    = F    spline interpolate recip. space projectors
   LCOMPAT=      F    compatible to vasp.4.4
   GGA_COMPAT  = T    GGA compatible to vasp.4.4-vasp.4.6
   LMAXPAW     = -100 max onsite density
   LMAXMIX     =    2 max onsite mixed and CHGCAR
   VOSKOWN=      0    Vosko Wilk Nusair interpolation
   ROPT   =    0.00000   0.00000   0.00000   0.00000
 Ionic relaxation
   EDIFFG = 0.1E-04   stopping-criterion for IOM
   NSW    =      0    number of steps for IOM
   NBLOCK =      1;   KBLOCK =      1    inner block; outer block 
   IBRION =     -1    ionic relax: 0-MD 1-quasi-New 2-CG
   NFREE  =      0    steps in history (QN), initial steepest desc. (CG)
   ISIF   =      0    stress and relaxation
   IWAVPR =     10    prediction:  0-non 1-charg 2-wave 3-comb
   ISYM   =      0    0-nonsym 1-usesym 2-fastsym
   LCORR  =      T    Harris-Foulkes like correction to forces

   POTIM  = 0.5000    time-step for ionic-motion
   TEIN   =    0.0    initial temperature
   TEBEG  =    0.0;   TEEND  =   0.0 temperature during run
   SMASS  =  -3.00    Nose mass-parameter (am)
   estimated Nose-frequenzy (Omega)   =  0.10E-29 period in steps = 0.13E+47 mass=  -0.914E-26a.u.
   SCALEE = 1.0000    scale energy and forces
   NPACO  =    256;   APACO  = 10.0  distance and # of slots for P.C.
   PSTRESS=    0.0 pullay stress

  Mass of Ions in am
   POMASS =  12.01  1.00 14.00 16.00
  Ionic Valenz
   ZVAL   =   4.00  1.00  5.00  6.00
  Atomic Wigner-Seitz radii
   RWIGS  =  -1.00 -1.00 -1.00 -1.00
  virtual crystal weights 
   VCA    =   1.00  1.00  1.00  1.00
   NELECT =      52.0000    total number of electrons
   NUPDOWN=      -1.0000    fix difference up-down

 DOS related values:
   EMIN   =  10.00;   EMAX   =-10.00  energy-range for DOS
   EFERMI =   0.00;   METHOD = LEGACY      
   ISMEAR =     0;   SIGMA  =   0.05  broadening in eV -4-tet -1-fermi 0-gaus

 Electronic relaxation 2 (details)
   IALGO  =     53    algorithm
   LDIAG  =      T    sub-space diagonalisation (order eigenvalues)
   LSUBROT=      F    optimize rotation matrix (better conditioning)
   TURBO    =      0    0=normal 1=particle mesh
   IRESTART =      0    0=no restart 2=restart with 2 vectors
   NREBOOT  =      0    no. of reboots
   NMIN     =      0    reboot dimension
   EREF     =   0.00    reference energy to select bands
   IMIX   =      4    mixing-type and parameters
     AMIX     =   0.40;   BMIX     =  1.00
     AMIX_MAG =   1.60;   BMIX_MAG =  1.00
     AMIN     =   0.10
     WC   =   100.;   INIMIX=   1;  MIXPRE=   1;  MAXMIX= -45

 Intra band minimization:
   WEIMIN = 0.0000     energy-eigenvalue tresh-hold
   EBREAK =  0.62E-08  absolut break condition
   DEPER  =   0.30     relativ break condition  

   TIME   =   0.40     timestep for ELM

  volume/ion in A,a.u.               =     400.00      2699.33
  Fermi-wavevector in a.u.,A,eV,Ry     =   0.305524  0.577357  1.270038  0.093345
  Thomas-Fermi vector in A             =   1.178628
 
 Write flags
   LWAVE        =      T    write WAVECAR
   LDOWNSAMPLE  =      F    k-point downsampling of WAVECAR
   LCHARG       =      T    write CHGCAR
   LVTOT        =      F    write LOCPOT, total local potential
   LVHAR        =      F    write LOCPOT, Hartree potential only
   LELF         =      F    write electronic localiz. function (ELF)
   LORBIT       =     11    0 simple, 1 ext, 2 COOP (PROOUT), +10 PAW based schemes


 Dipole corrections
   LMONO  =      F    monopole corrections only (constant potential shift)
   LDIPOL =      T    correct potential (dipole corrections)
   IDIPOL =      4    1-x, 2-y, 3-z, 4-all directions 
   EPSILON=  1.0000000 bulk dielectric constant

 Exchange correlation treatment:
   GGA     =    B3    GGA type
   LEXCH   =    11    internal setting for exchange type
   LIBXC   =     F    Libxc                    
   VOSKOWN =     0    Vosko Wilk Nusair interpolation
   EXXOEP  =     0    0=HF, 1=EXX-LHF (local Hartree Fock) 2=EXX OEP
   LHFCALC =     T    Hartree Fock is set to
   LSYMGRAD=     F    symmetrize gradient (conserves proper symmetry)
   PRECFOCK=normal    Normal, Fast or Accurate (Low or Medium for compatibility)
   LRHFCALC=     F    long range Hartree Fock
   LRSCOR  =     F    long range correlation only (use DFT for short range part)
   LTHOMAS =     F    Thomas Fermi screening in HF
   LMODELHF=     F    short range full HF, long range fraction AEXX
   FOCKCORR=     1    mode to apply convergence corrections
   LFOCKACE=     T    use Adeptively-Compressed-Exchange operator
   ENCUT4O =  -1.0   cutoff for four orbital integrals eV
   LMAXFOCK=     4    L truncation for augmentation on plane wave grid
   LMAXFOCKAE=  -1    L truncation for all-electron charge restoration on plane wave grid
   NMAXFOCKAE=   1    number of basis functions for all-electron charge restoration
   LFOCKAEDFT=     F  apply the AE augmentation even for DFT
   NKREDX  =     1    reduce k-point grid by
   NKREDY  =     1    reduce k-point grid by
   NKREDZ  =     1    reduce k-point grid by
   SHIFTRED=     F    shift reduced grid of Gamma
   HFKIDENT=     F    idential grid for each k-point
   ODDONLY =     F    use only odd q-grid points
   EVENONLY=     F    use only even q-grid points
   HFALPHA =   -1.0000 decay constant for conv. correction
   MCALPHA =    0.0000 extent of test-charge in conv. correction in multipole expansion
   AEXX    =    0.2000 exact exchange contribution
   HFSCREEN=    0.0000 screening length (either q_TF or 0.3 A-1)
   HFSCREENC=   0.0000 screening length for correlation (either q_TF or 0.3 A-1)
   HFRCUT  =    0.0000 spherical cutoff for potential kernel
   ALDAX   =    0.8000 LDA exchange part
   AGGAX   =    0.7200 GGA exchange part
   ALDAC   =    0.1900 LDA correlation
   AGGAC   =    0.8100 GGA correlation
   ENCUTFOCK=  -1.0 apply spherical cutoff to Coloumb kernel
   NBANDSGWLOW=     1    first orbital included in HF term
   NBLOCK_FOCK=    64    blocking factor in FOCK_ACC

 Linear response parameters
   LEPSILON=     F    determine dielectric tensor
   LRPA    =     F    only Hartree local field effects (RPA)
   LNABLA  =     F    use nabla operator in PAW spheres
   LVEL    =     F    velocity operator in full k-point grid
   CSHIFT  =0.1000    complex shift for real part using Kramers Kronig
   OMEGAMAX=  -1.0    maximum frequency
   DEG_THRESHOLD= 0.2000000E-02 threshold for treating states as degnerate
   RTIME   =   -0.100 relaxation time in fs
  (WPLASMAI=    0.000 imaginary part of plasma frequency in eV, 0.658/RTIME)
   DFIELD  = 0.0000000 0.0000000 0.0000000 field for delta impulse in time
 
  Optional k-point grid parameters
   LKPOINTS_OPT  =     F    use optional k-point grid
   KPOINTS_OPT_MODE=     1    mode for optional k-point grid
 
 Orbital magnetization related:
   ORBITALMAG=     F  switch on orbital magnetization
   LCHIMAG   =     F  perturbation theory with respect to B field
   DQ        =  0.001000  dq finite difference perturbation B field
   LLRAUG    =     F  two centre corrections for induced B field
   LBONE     =     F  B-component reconstruction in AE one-centre
   LVGVCALC  =     T  calculate vGv susceptibility
   LVGVAPPL  =     F  apply vGv susceptibility instead of pGv for G=0

 Random number generation:
   RANDOM_GENERATOR = DEFAULT
   PCG_SEED         = not used


--------------------------------------------------------------------------------------------------------


 Static calculation
 charge density and potential will be updated during run
 non-spin polarized calculation
 Conjugate gradient for all bands (Freysoldt, et al. PRB 79, 241103 (2009))
 perform sub-space diagonalisation
    before iterative eigenvector-optimisation
 modified Broyden-mixing scheme, WC =      100.0
 initial mixing is a Kerker type mixing with AMIX =  0.4000 and BMIX =      1.0000
 Hartree-type preconditioning will be used
 using additional bands           14
 reciprocal scheme for non local part
 use partial core corrections
 no Harris-corrections to forces 
 use gradient corrections 
 use of overlap-Matrix (Vanderbilt PP)
 Gauss-broadening in eV      SIGMA  =   0.05


--------------------------------------------------------------------------------------------------------


  energy-cutoff  :      500.00
  volume of cell :     8000.00
      direct lattice vectors                 reciprocal lattice vectors
    20.000000000  0.000000000  0.000000000     0.050000000  0.000000000  0.000000000
     0.000000000 20.000000000  0.000000000     0.000000000  0.050000000  0.000000000
     0.000000000  0.000000000 20.000000000     0.000000000  0.000000000  0.050000000

  length of vectors
    20.000000000 20.000000000 20.000000000     0.050000000  0.050000000  0.050000000


 
 k-points in units of 2pi/SCALE and weight: Gamma-point only                        
   0.00000000  0.00000000  0.00000000       1.000
 
 k-points in reciprocal lattice and weights: Gamma-point only                        
   0.00000000  0.00000000  0.00000000       1.000
 
 position of ions in fractional coordinates (direct lattice) 
   0.38823500  0.57253690  0.44328630
   0.40668835  0.56017570  0.51242900
   0.45170665  0.49725795  0.51188280
   0.51066890  0.51350105  0.46969210
   0.56101360  0.45893765  0.46134705
   0.59113385  0.43669030  0.52661110
   0.36299085  0.55243245  0.54549960
   0.43830660  0.60040520  0.53391900
   0.42328355  0.45321525  0.49396195
   0.42290905  0.47946825  0.60186915
   0.53741695  0.55686200  0.49405990
   0.49367940  0.53041415  0.41907945
   0.53366185  0.41626205  0.43613925
   0.60081210  0.47350665  0.42445285
   0.55264670  0.41751725  0.56093270
   0.62852420  0.39575550  0.51736850
   0.63293475  0.52365990  0.52222785
   0.37385180  0.58169380  0.38713500
   0.46728595  0.48878415  0.58040030
   0.62224985  0.49092390  0.55770620
 
 position of ions in cartesian coordinates  (Angst):
   7.76470000 11.45073800  8.86572600
   8.13376700 11.20351400 10.24858000
   9.03413300  9.94515900 10.23765600
  10.21337800 10.27002100  9.39384200
  11.22027200  9.17875300  9.22694100
  11.82267700  8.73380600 10.53222200
   7.25981700 11.04864900 10.90999200
   8.76613200 12.00810400 10.67838000
   8.46567100  9.06430500  9.87923900
   8.45818100  9.58936500 12.03738300
  10.74833900 11.13724000  9.88119800
   9.87358800 10.60828300  8.38158900
  10.67323700  8.32524100  8.72278500
  12.01624200  9.47013300  8.48905700
  11.05293400  8.35034500 11.21865400
  12.57048400  7.91511000 10.34737000
  12.65869500 10.47319800 10.44455700
   7.47703600 11.63387600  7.74270000
   9.34571900  9.77568300 11.60800600
  12.44499700  9.81847800 11.15412400
 


--------------------------------------------------------------------------------------------------------


 k-point   1 :   0.0000 0.0000 0.0000  plane waves:  203269

 maximum and minimum number of plane-waves per node :     50840    50799

 maximum number of plane-waves:    203269
 maximum index in each direction: 
   IXMAX=   36   IYMAX=   36   IZMAX=   36
   IXMIN=  -36   IYMIN=  -36   IZMIN=  -36


 parallel 3D FFT for wavefunctions:
    minimum data exchange during FFTs selected (reduces bandwidth)
 parallel 3D FFT for charge:
    minimum data exchange during FFTs selected (reduces bandwidth)


 FFT grid for exact exchange (Hartree Fock) 
  NGX =112; NGY =112; NGZ =112

 
 Radii for the augmentation spheres in the non-local exchange
 for species   1 augmentation radius   0.874 (default was   0.699)
       energy cutoff for augmentation   2000.0
 for species   2 augmentation radius   0.650 (default was   0.520)
       energy cutoff for augmentation   2000.0
 for species   3 augmentation radius   0.886 (default was   0.709)
       energy cutoff for augmentation   2000.0
 for species   4 augmentation radius   0.902 (default was   0.722)
       energy cutoff for augmentation   2000.0

 real space projection operators:
  total allocation   :        475.73 KBytes
  max/ min on nodes  :        120.94        116.16

 Maximum index for augmentation-charges in exchange          140
  SETUP_FOCK is finished

 total amount of memory used by VASP MPI-rank0   246992. kBytes
=======================================================================

   base      :      30000. kBytes
   nonl-proj :      29279. kBytes
   fftplans  :      75720. kBytes
   grid      :      99427. kBytes
   one-center:         15. kBytes
   HF        :          9. kBytes
   nonlr-proj:        335. kBytes
   wavefun   :      12207. kBytes
 
     INWAV:  cpu time      0.0000: real time      0.0000
 Broyden mixing: mesh for mixing (old mesh)
   NGX = 73   NGY = 73   NGZ = 73
  (NGX  =300   NGY  =300   NGZ  =300)
  gives a total of 389017 points

 initial charge density was supplied:
 charge density of overlapping atoms calculated
 number of electron      52.0000000 magnetization 
 charge density for first step will be calculated from the start-wavefunctions


--------------------------------------------------------------------------------------------------------


 Maximum index for augmentation-charges          279 (set IRDMAX)


--------------------------------------------------------------------------------------------------------


    FEWALD:  cpu time      0.0003: real time      0.0002


--------------------------------------- Ionic step        1  -------------------------------------------




--------------------------------------- Iteration      1(   1)  ---------------------------------------


    POTLOK:  cpu time      0.4056: real time      0.4079
    SETDIJ:  cpu time      0.0028: real time      0.0029
    TRIAL :  cpu time      0.8658: real time      0.8722
    CORREC:  cpu time      0.0019: real time      0.0020
    --------------------------------------------
      LOOP:  cpu time      1.2786: real time      1.3095

 eigenvalue-minimisations  :    80
 total energy-change (2. order) : 0.7425621E+03  (-0.6192670E+03)
 number of electron      52.0000000 magnetization 
 augmentation part       52.0000000 magnetization 

 DIPCOR: dipole corrections for dipol
 direction  1 min pos     1, direction  2 min pos     1, direction  3 min pos     1,
 dipolmoment           0.000047     -0.000022      0.000026 electrons x Angstroem
 Tr[quadrupol]        38.634248

 energy correction for charged system         0.000000 eV
 dipol+quadrupol energy correction           -0.000000 eV
 added-field ion interaction          0.000003 eV  (added to PSCEN)


 Free energy of the ion-electron system (eV)
  ---------------------------------------------------
  alpha Z        PSCENC =         1.41625762
  Ewald energy   TEWEN  =      4180.07565827
  -Hartree energ DENC   =     -5727.67612392
  -exchange      EXHF   =         0.00000000
  -V(xc)+E(xc)   XCENC  =       179.57500909
  PAW double counting   =      1572.63826547    -1759.76485797
  entropy T*S    EENTRO =        -0.00001457
  eigenvalues    EBANDS =       161.97413877
  atomic energy  EATOM  =      2134.32377930
  ---------------------------------------------------
  free energy    TOTEN  =       742.56211207 eV

  energy without entropy =      742.56212664  energy(sigma->0) =      742.56211936
  exchange ACFDT corr.  =         0.00000000  see jH, gK, PRB 81, 115126


--------------------------------------------------------------------------------------------------------




--------------------------------------- Iteration      1(   2)  ---------------------------------------


    TRIAL :  cpu time      1.4464: real time      1.4691
    CORREC:  cpu time      0.0011: real time      0.0011
    --------------------------------------------
      LOOP:  cpu time      1.4477: real time      1.4703

 eigenvalue-minimisations  :   160
 total energy-change (2. order) :-0.2393883E+03  (-0.2249580E+03)
 number of electron      52.0000000 magnetization 
 augmentation part       52.0000000 magnetization 

 DIPCOR: dipole corrections for dipol
 direction  1 min pos     1, direction  2 min pos     1, direction  3 min pos     1,
 dipolmoment           0.000047     -0.000022      0.000026 electrons x Angstroem
 Tr[quadrupol]        38.634248

 energy correction for charged system         0.000000 eV
 dipol+quadrupol energy correction           -0.000000 eV
 added-field ion interaction          0.000003 eV  (added to PSCEN)


 Free energy of the ion-electron system (eV)
  ---------------------------------------------------
  alpha Z        PSCENC =         1.41625762
  Ewald energy   TEWEN  =      4180.07565827
  -Hartree energ DENC   =     -5727.67612392
  -exchange      EXHF   =         0.00000000
  -V(xc)+E(xc)   XCENC  =       179.57500909
  PAW double counting   =      1572.63826547    -1759.76485797
  entropy T*S    EENTRO =        -0.00462261
  eigenvalues    EBANDS =       -77.40957301
  atomic energy  EATOM  =      2134.32377930
  ---------------------------------------------------
  free energy    TOTEN  =       503.17379224 eV

  energy without entropy =      503.17841486  energy(sigma->0) =      503.17610355
  exchange ACFDT corr.  =         0.00000000  see jH, gK, PRB 81, 115126


--------------------------------------------------------------------------------------------------------




--------------------------------------- Iteration      1(   3)  ---------------------------------------


    TRIAL :  cpu time      1.4464: real time      1.4568
    CORREC:  cpu time      0.0012: real time      0.0012
    --------------------------------------------
      LOOP:  cpu time      1.4477: real time      1.4581

 eigenvalue-minimisations  :   160
 total energy-change (2. order) :-0.3097074E+03  (-0.2886162E+03)
 number of electron      52.0000000 magnetization 
 augmentation part       52.0000000 magnetization 

 DIPCOR: dipole corrections for dipol
 direction  1 min pos     1, direction  2 min pos     1, direction  3 min pos     1,
 dipolmoment           0.000047     -0.000022      0.000026 electrons x Angstroem
 Tr[quadrupol]        38.634248

 energy correction for charged system         0.000000 eV
 dipol+quadrupol energy correction           -0.000000 eV
 added-field ion interaction          0.000003 eV  (added to PSCEN)


 Free energy of the ion-electron system (eV)
  ---------------------------------------------------
  alpha Z        PSCENC =         1.41625762
  Ewald energy   TEWEN  =      4180.07565827
  -Hartree energ DENC   =     -5727.67612392
  -exchange      EXHF   =         0.00000000
  -V(xc)+E(xc)   XCENC  =       179.57500909
  PAW double counting   =      1572.63826547    -1759.76485797
  entropy T*S    EENTRO =        -0.02315557
  eigenvalues    EBANDS =      -387.09842421
  atomic energy  EATOM  =      2134.32377930
  ---------------------------------------------------
  free energy    TOTEN  =       193.46640810 eV

  energy without entropy =      193.48956366  energy(sigma->0) =      193.47798588
  exchange ACFDT corr.  =         0.00000000  see jH, gK, PRB 81, 115126


--------------------------------------------------------------------------------------------------------




--------------------------------------- Iteration      1(   4)  ---------------------------------------


    TRIAL :  cpu time      1.4480: real time      1.4593
    CORREC:  cpu time      0.0008: real time      0.0009
    --------------------------------------------
      LOOP:  cpu time      1.4490: real time      1.4603

 eigenvalue-minimisations  :   160
 total energy-change (2. order) :-0.2494276E+03  (-0.2336622E+03)
 number of electron      52.0000000 magnetization 
 augmentation part       52.0000000 magnetization 

 DIPCOR: dipole corrections for dipol
 direction  1 min pos     1, direction  2 min pos     1, direction  3 min pos     1,
 dipolmoment           0.000047     -0.000022      0.000026 electrons x Angstroem
 Tr[quadrupol]        38.634248

 energy correction for charged system         0.000000 eV
 dipol+quadrupol energy correction           -0.000000 eV
 added-field ion interaction          0.000003 eV  (added to PSCEN)


 Free energy of the ion-electron system (eV)
  ---------------------------------------------------
  alpha Z        PSCENC =         1.41625762
  Ewald energy   TEWEN  =      4180.07565827
  -Hartree energ DENC   =     -5727.67612392
  -exchange      EXHF   =         0.00000000
  -V(xc)+E(xc)   XCENC  =       179.57500909
  PAW double counting   =      1572.63826547    -1759.76485797
  entropy T*S    EENTRO =        -0.00306660
  eigenvalues    EBANDS =      -636.54610507
  atomic energy  EATOM  =      2134.32377930
  ---------------------------------------------------
  free energy    TOTEN  =       -55.96118380 eV

  energy without entropy =      -55.95811720  energy(sigma->0) =      -55.95965050
  exchange ACFDT corr.  =         0.00000000  see jH, gK, PRB 81, 115126


--------------------------------------------------------------------------------------------------------




--------------------------------------- Iteration      1(   5)  ---------------------------------------


    POTLOK:  cpu time      0.7932: real time      0.7979
    SETDIJ:  cpu time      0.0022: real time      0.0022
    TRIAL :  cpu time      6.7310: real time      6.7744
    CORREC:  cpu time      0.0003: real time      0.0003
    CHARGE:  cpu time      0.1124: real time      0.1134
    --------------------------------------------
      LOOP:  cpu time      7.6393: real time      7.6884

 eigenvalue-minimisations  :   160
 total energy-change (2. order) : 0.3036841E+02  (-0.1513996E+03)
 number of electron      51.9999998 magnetization 
 augmentation part        2.3762549 magnetization 

 DIPCOR: dipole corrections for dipol
 direction  1 min pos     1, direction  2 min pos     1, direction  3 min pos     1,
 dipolmoment           0.000047     -0.000022      0.000026 electrons x Angstroem
 Tr[quadrupol]        38.634248

 energy correction for charged system         0.000000 eV
 dipol+quadrupol energy correction           -0.000000 eV
 added-field ion interaction          0.000003 eV  (added to PSCEN)


 Free energy of the ion-electron system (eV)
  ---------------------------------------------------
  alpha Z        PSCENC =         1.41625762
  Ewald energy   TEWEN  =      4180.07565827
  -Hartree energ DENC   =     -5727.67612392
  -exchange      EXHF   =        77.12178520
  -V(xc)+E(xc)   XCENC  =       143.25852148
  PAW double counting   =      1602.57169084    -1611.82852800
  entropy T*S    EENTRO =        -0.00000000
  eigenvalues    EBANDS =      -824.85581877
  atomic energy  EATOM  =      2134.32377930
  ---------------------------------------------------
  free energy    TOTEN  =       -25.59277798 eV

  energy without entropy =      -25.59277798  energy(sigma->0) =      -25.59277798
  exchange ACFDT corr.  =        -0.00658460  see jH, gK, PRB 81, 115126


--------------------------------------------------------------------------------------------------------




--------------------------------------- Iteration      1(   6)  ---------------------------------------


    POTLOK:  cpu time      1.5647: real time      1.5712
    SETDIJ:  cpu time      0.0024: real time      0.0024
    TRIAL :  cpu time      5.1729: real time      5.2071
    CORREC:  cpu time      0.0003: real time      0.0004
    CHARGE:  cpu time      0.1109: real time      0.1116
    --------------------------------------------
      LOOP:  cpu time      6.8515: real time      6.8930

 eigenvalue-minimisations  :     0
 total energy-change (2. order) : 0.2806785E+02  (-0.3596570E+03)
 number of electron      51.9999998 magnetization 
 augmentation part        2.3745222 magnetization 

 DIPCOR: dipole corrections for dipol
 direction  1 min pos     1, direction  2 min pos     1, direction  3 min pos     1,
 dipolmoment           1.890803     -1.370178     -1.049607 electrons x Angstroem
 Tr[quadrupol]       489.046675

 energy correction for charged system         0.000000 eV
 dipol+quadrupol energy correction           -0.024707 eV
 added-field ion interaction          0.166814 eV  (added to PSCEN)


 Free energy of the ion-electron system (eV)
  ---------------------------------------------------
  alpha Z        PSCENC =         1.55836075
  Ewald energy   TEWEN  =      4180.07565827
  -Hartree energ DENC   =     -4988.20813643
  -exchange      EXHF   =       104.56975110
  -V(xc)+E(xc)   XCENC  =       140.42880083
  PAW double counting   =      3716.66328425    -3728.69954632
  entropy T*S    EENTRO =        -0.00000000
  eigenvalues    EBANDS =     -1558.23687955
  atomic energy  EATOM  =      2134.32377930
  ---------------------------------------------------
  free energy    TOTEN  =         2.47507220 eV

  energy without entropy =        2.47507220  energy(sigma->0) =        2.47507220
  exchange ACFDT corr.  =        -0.00000000  see jH, gK, PRB 81, 115126


--------------------------------------------------------------------------------------------------------




--------------------------------------- Iteration      1(   7)  ---------------------------------------


    POTLOK:  cpu time      1.4298: real time      1.4355
    SETDIJ:  cpu time      0.0025: real time      0.0025
    TRIAL :  cpu time      5.1577: real time      5.1881
    CORREC:  cpu time      0.0003: real time      0.0002
    CHARGE:  cpu time      0.1106: real time      0.1113
    --------------------------------------------
      LOOP:  cpu time      6.7011: real time      6.7379

 eigenvalue-minimisations  :     0
 total energy-change (2. order) :-0.9962926E+02  (-0.4370085E+02)
 number of electron      51.9999998 magnetization 
 augmentation part        2.1816217 magnetization 

 DIPCOR: dipole corrections for dipol
 direction  1 min pos     1, direction  2 min pos     1, direction  3 min pos     1,
 dipolmoment           0.597333      0.186698     -0.257154 electrons x Angstroem
 Tr[quadrupol]       153.283683

 energy correction for charged system         0.000000 eV
 dipol+quadrupol energy correction           -0.001726 eV
 added-field ion interaction          0.020527 eV  (added to PSCEN)


 Free energy of the ion-electron system (eV)
  ---------------------------------------------------
  alpha Z        PSCENC =         1.43505525
  Ewald energy   TEWEN  =      4180.07565827
  -Hartree energ DENC   =     -5750.57852157
  -exchange      EXHF   =       114.41384982
  -V(xc)+E(xc)   XCENC  =       149.98607950
  PAW double counting   =      4075.95389044    -4087.63412819
  entropy T*S    EENTRO =        -0.00000000
  eigenvalues    EBANDS =      -915.12985433
  atomic energy  EATOM  =      2134.32377930
  ---------------------------------------------------
  free energy    TOTEN  =       -97.15419151 eV

  energy without entropy =      -97.15419151  energy(sigma->0) =      -97.15419151
  exchange ACFDT corr.  =        -0.00000000  see jH, gK, PRB 81, 115126


--------------------------------------------------------------------------------------------------------




--------------------------------------- Iteration      1(   8)  ---------------------------------------


    POTLOK:  cpu time      0.9561: real time      0.9594
    SETDIJ:  cpu time      0.0024: real time      0.0024
    TRIAL :  cpu time      5.1479: real time      5.1768
    CORREC:  cpu time      0.0003: real time      0.0003
    CHARGE:  cpu time      0.1103: real time      0.1111
    --------------------------------------------
      LOOP:  cpu time      6.2173: real time      6.2503

 eigenvalue-minimisations  :     0
 total energy-change (2. order) :-0.1987136E+02  (-0.2527779E+02)
 number of electron      51.9999998 magnetization 
 augmentation part        2.2129008 magnetization 

 DIPCOR: dipole corrections for dipol
 direction  1 min pos     1, direction  2 min pos     1, direction  3 min pos     1,
 dipolmoment           0.281487      0.106627     -0.194461 electrons x Angstroem
 Tr[quadrupol]       104.245868

 energy correction for charged system         0.000000 eV
 dipol+quadrupol energy correction           -0.000484 eV
 added-field ion interaction          0.008873 eV  (added to PSCEN)


 Free energy of the ion-electron system (eV)
  ---------------------------------------------------
  alpha Z        PSCENC =         1.42464320
  Ewald energy   TEWEN  =      4180.07565827
  -Hartree energ DENC   =     -5789.75299886
  -exchange      EXHF   =       113.87857035
  -V(xc)+E(xc)   XCENC  =       148.29323108
  PAW double counting   =      4038.38147484    -4049.03711259
  entropy T*S    EENTRO =        -0.00000000
  eigenvalues    EBANDS =      -894.61280157
  atomic energy  EATOM  =      2134.32377930
  ---------------------------------------------------
  free energy    TOTEN  =      -117.02555597 eV

  energy without entropy =     -117.02555597  energy(sigma->0) =     -117.02555597
  exchange ACFDT corr.  =        -0.00000000  see jH, gK, PRB 81, 115126


--------------------------------------------------------------------------------------------------------




--------------------------------------- Iteration      1(   9)  ---------------------------------------


    POTLOK:  cpu time      0.8527: real time      0.8557
    SETDIJ:  cpu time      0.0051: real time      0.0051
    TRIAL :  cpu time      5.1556: real time      5.1862
    CORREC:  cpu time      0.0004: real time      0.0004
    CHARGE:  cpu time      0.1108: real time      0.1116
    --------------------------------------------
      LOOP:  cpu time      6.1247: real time      6.1592

 eigenvalue-minimisations  :     0
 total energy-change (2. order) :-0.1193882E+02  (-0.5141199E+01)
 number of electron      51.9999998 magnetization 
 augmentation part        2.2542734 magnetization 

 DIPCOR: dipole corrections for dipol
 direction  1 min pos     1, direction  2 min pos     1, direction  3 min pos     1,
 dipolmoment           0.154813      0.219746     -0.308454 electrons x Angstroem
 Tr[quadrupol]        45.909379

 energy correction for charged system         0.000000 eV
 dipol+quadrupol energy correction           -0.000631 eV
 added-field ion interaction         -0.002993 eV  (added to PSCEN)


 Free energy of the ion-electron system (eV)
  ---------------------------------------------------
  alpha Z        PSCENC =         1.41262993
  Ewald energy   TEWEN  =      4180.07565827
  -Hartree energ DENC   =     -5919.34020768
  -exchange      EXHF   =       116.59034122
  -V(xc)+E(xc)   XCENC  =       150.65132419
  PAW double counting   =      4081.83158149    -4092.36508217
  entropy T*S    EENTRO =        -0.00000000
  eigenvalues    EBANDS =      -782.14440424
  atomic energy  EATOM  =      2134.32377930
  ---------------------------------------------------
  free energy    TOTEN  =      -128.96437968 eV

  energy without entropy =     -128.96437968  energy(sigma->0) =     -128.96437968
  exchange ACFDT corr.  =        -0.00000000  see jH, gK, PRB 81, 115126


--------------------------------------------------------------------------------------------------------




--------------------------------------- Iteration      1(  10)  ---------------------------------------


    POTLOK:  cpu time      0.8565: real time      0.8598
    SETDIJ:  cpu time      0.0024: real time      0.0024
    TRIAL :  cpu time      5.1367: real time      5.1699
    CORREC:  cpu time      0.0002: real time      0.0002
    CHARGE:  cpu time      0.1096: real time      0.1112
    --------------------------------------------
      LOOP:  cpu time      6.1061: real time      6.1442

 eigenvalue-minimisations  :     0
 total energy-change (2. order) :-0.2203500E+01  (-0.2437454E+01)
 number of electron      51.9999998 magnetization 
 augmentation part        2.2807111 magnetization 

 DIPCOR: dipole corrections for dipol
 direction  1 min pos     1, direction  2 min pos     1, direction  3 min pos     1,
 dipolmoment           0.125029      0.264576     -0.330203 electrons x Angstroem
 Tr[quadrupol]        39.900794

 energy correction for charged system         0.000000 eV
 dipol+quadrupol energy correction           -0.000734 eV
 added-field ion interaction         -0.006736 eV  (added to PSCEN)


 Free energy of the ion-electron system (eV)
  ---------------------------------------------------
  alpha Z        PSCENC =         1.40878390
  Ewald energy   TEWEN  =      4180.07565827
  -Hartree energ DENC   =     -5939.11134846
  -exchange      EXHF   =       117.57532095
  -V(xc)+E(xc)   XCENC  =       151.70655209
  PAW double counting   =      4074.16159990    -4084.77233555
  entropy T*S    EENTRO =        -0.00000000
  eigenvalues    EBANDS =      -766.53589034
  atomic energy  EATOM  =      2134.32377930
  ---------------------------------------------------
  free energy    TOTEN  =      -131.16787993 eV

  energy without entropy =     -131.16787993  energy(sigma->0) =     -131.16787993
  exchange ACFDT corr.  =        -0.00000000  see jH, gK, PRB 81, 115126


--------------------------------------------------------------------------------------------------------




--------------------------------------- Iteration      1(  11)  ---------------------------------------


    POTLOK:  cpu time      0.8577: real time      0.8615
    SETDIJ:  cpu time      0.0030: real time      0.0030
    TRIAL :  cpu time      5.1613: real time      5.1905
    CORREC:  cpu time      0.0004: real time      0.0005
    CHARGE:  cpu time      0.1105: real time      0.1111
    --------------------------------------------
      LOOP:  cpu time      6.1331: real time      6.1669

 eigenvalue-minimisations  :     0
 total energy-change (2. order) :-0.1467467E+01  (-0.1208302E+01)
 number of electron      51.9999998 magnetization 
 augmentation part        2.2876772 magnetization 

 DIPCOR: dipole corrections for dipol
 direction  1 min pos     1, direction  2 min pos     1, direction  3 min pos     1,
 dipolmoment           0.121613      0.240281     -0.316046 electrons x Angstroem
 Tr[quadrupol]        34.749695

 energy correction for charged system         0.000000 eV
 dipol+quadrupol energy correction           -0.000650 eV
 added-field ion interaction         -0.005682 eV  (added to PSCEN)


 Free energy of the ion-electron system (eV)
  ---------------------------------------------------
  alpha Z        PSCENC =         1.40992206
  Ewald energy   TEWEN  =      4180.07565827
  -Hartree energ DENC   =     -5953.71002217
  -exchange      EXHF   =       118.05418046
  -V(xc)+E(xc)   XCENC  =       152.21339067
  PAW double counting   =      4067.94687939    -4078.65488686
  entropy T*S    EENTRO =        -0.00000000
  eigenvalues    EBANDS =      -754.29424756
  atomic energy  EATOM  =      2134.32377930
  ---------------------------------------------------
  free energy    TOTEN  =      -132.63534645 eV

  energy without entropy =     -132.63534645  energy(sigma->0) =     -132.63534645
  exchange ACFDT corr.  =        -0.00000000  see jH, gK, PRB 81, 115126


--------------------------------------------------------------------------------------------------------




--------------------------------------- Iteration      1(  12)  ---------------------------------------


    POTLOK:  cpu time      0.8563: real time      0.8595
    SETDIJ:  cpu time      0.0030: real time      0.0030
    TRIAL :  cpu time      5.1598: real time      5.1900
    CORREC:  cpu time      0.0003: real time      0.0003
    CHARGE:  cpu time      0.1103: real time      0.1112
    --------------------------------------------
      LOOP:  cpu time      6.1300: real time      6.1644

 eigenvalue-minimisations  :     0
 total energy-change (2. order) :-0.7129857E+00  (-0.4179747E+00)
 number of electron      51.9999998 magnetization 
 augmentation part        2.2881226 magnetization 

 DIPCOR: dipole corrections for dipol
 direction  1 min pos     1, direction  2 min pos     1, direction  3 min pos     1,
 dipolmoment           0.131883      0.233259     -0.319210 electrons x Angstroem
 Tr[quadrupol]        31.599221

 energy correction for charged system         0.000000 eV
 dipol+quadrupol energy correction           -0.000655 eV
 added-field ion interaction         -0.004803 eV  (added to PSCEN)


 Free energy of the ion-electron system (eV)
  ---------------------------------------------------
  alpha Z        PSCENC =         1.41079605
  Ewald energy   TEWEN  =      4180.07565827
  -Hartree energ DENC   =     -5957.90274872
  -exchange      EXHF   =       118.13737162
  -V(xc)+E(xc)   XCENC  =       152.28018787
  PAW double counting   =      4060.09467993    -4070.83367367
  entropy T*S    EENTRO =        -0.00000000
  eigenvalues    EBANDS =      -750.93438280
  atomic energy  EATOM  =      2134.32377930
  ---------------------------------------------------
  free energy    TOTEN  =      -133.34833215 eV

  energy without entropy =     -133.34833215  energy(sigma->0) =     -133.34833215
  exchange ACFDT corr.  =        -0.00000000  see jH, gK, PRB 81, 115126


--------------------------------------------------------------------------------------------------------




--------------------------------------- Iteration      1(  13)  ---------------------------------------


    POTLOK:  cpu time      0.8553: real time      0.8583
    SETDIJ:  cpu time      0.0040: real time      0.0042
    TRIAL :  cpu time      5.1589: real time      5.1881
    CORREC:  cpu time      0.0003: real time      0.0003
    CHARGE:  cpu time      0.1103: real time      0.1111
    --------------------------------------------
      LOOP:  cpu time      6.1330: real time      6.1683

 eigenvalue-minimisations  :     0
 total energy-change (2. order) :-0.2396204E+00  (-0.1621635E+00)
 number of electron      51.9999998 magnetization 
 augmentation part        2.2889232 magnetization 

 DIPCOR: dipole corrections for dipol
 direction  1 min pos     1, direction  2 min pos     1, direction  3 min pos     1,
 dipolmoment           0.132277      0.234424     -0.313503 electrons x Angstroem
 Tr[quadrupol]        30.733628

 energy correction for charged system         0.000000 eV
 dipol+quadrupol energy correction           -0.000644 eV
 added-field ion interaction         -0.004857 eV  (added to PSCEN)


 Free energy of the ion-electron system (eV)
  ---------------------------------------------------
  alpha Z        PSCENC =         1.41075374
  Ewald energy   TEWEN  =      4180.07565827
  -Hartree energ DENC   =     -5956.92592317
  -exchange      EXHF   =       118.10685995
  -V(xc)+E(xc)   XCENC  =       152.23344213
  PAW double counting   =      4054.75242086    -4065.49051480
  entropy T*S    EENTRO =        -0.00000000
  eigenvalues    EBANDS =      -752.07442885
  atomic energy  EATOM  =      2134.32377930
  ---------------------------------------------------
  free energy    TOTEN  =      -133.58795256 eV

  energy without entropy =     -133.58795256  energy(sigma->0) =     -133.58795256
  exchange ACFDT corr.  =        -0.00000000  see jH, gK, PRB 81, 115126


--------------------------------------------------------------------------------------------------------




--------------------------------------- Iteration      1(  14)  ---------------------------------------


    POTLOK:  cpu time      0.8572: real time      0.8603
    SETDIJ:  cpu time      0.0023: real time      0.0023
    TRIAL :  cpu time      5.1559: real time      5.1861
    CORREC:  cpu time      0.0005: real time      0.0005
    CHARGE:  cpu time      0.1103: real time      0.1112
    --------------------------------------------
      LOOP:  cpu time      6.1264: real time      6.1606

 eigenvalue-minimisations  :     0
 total energy-change (2. order) :-0.9892155E-01  (-0.7073722E-01)
 number of electron      51.9999998 magnetization 
 augmentation part        2.2890056 magnetization 

 DIPCOR: dipole corrections for dipol
 direction  1 min pos     1, direction  2 min pos     1, direction  3 min pos     1,
 dipolmoment           0.129308      0.231436     -0.308722 electrons x Angstroem
 Tr[quadrupol]        30.459775

 energy correction for charged system         0.000000 eV
 dipol+quadrupol energy correction           -0.000624 eV
 added-field ion interaction         -0.004860 eV  (added to PSCEN)


 Free energy of the ion-electron system (eV)
  ---------------------------------------------------
  alpha Z        PSCENC =         1.41076960
  Ewald energy   TEWEN  =      4180.07565827
  -Hartree energ DENC   =     -5956.68487121
  -exchange      EXHF   =       118.10476689
  -V(xc)+E(xc)   XCENC  =       152.22713663
  PAW double counting   =      4054.43443289    -4065.17259996
  entropy T*S    EENTRO =        -0.00000000
  eigenvalues    EBANDS =      -752.40594652
  atomic energy  EATOM  =      2134.32377930
  ---------------------------------------------------
  free energy    TOTEN  =      -133.68687411 eV

  energy without entropy =     -133.68687411  energy(sigma->0) =     -133.68687411
  exchange ACFDT corr.  =        -0.00000000  see jH, gK, PRB 81, 115126


--------------------------------------------------------------------------------------------------------




--------------------------------------- Iteration      1(  15)  ---------------------------------------


    POTLOK:  cpu time      0.8553: real time      0.8584
    SETDIJ:  cpu time      0.0023: real time      0.0023
    TRIAL :  cpu time      5.1399: real time      5.1687
    CORREC:  cpu time      0.0002: real time      0.0002
    CHARGE:  cpu time      0.1096: real time      0.1116
    --------------------------------------------
      LOOP:  cpu time      6.1075: real time      6.1413

 eigenvalue-minimisations  :     0
 total energy-change (2. order) :-0.4568000E-01  (-0.3258806E-01)
 number of electron      51.9999998 magnetization 
 augmentation part        2.2880343 magnetization 

 DIPCOR: dipole corrections for dipol
 direction  1 min pos     1, direction  2 min pos     1, direction  3 min pos     1,
 dipolmoment           0.128199      0.227402     -0.307387 electrons x Angstroem
 Tr[quadrupol]        30.341786

 energy correction for charged system         0.000000 eV
 dipol+quadrupol energy correction           -0.000613 eV
 added-field ion interaction         -0.004710 eV  (added to PSCEN)


 Free energy of the ion-electron system (eV)
  ---------------------------------------------------
  alpha Z        PSCENC =         1.41093140
  Ewald energy   TEWEN  =      4180.07565827
  -Hartree energ DENC   =     -5956.84603038
  -exchange      EXHF   =       118.10883388
  -V(xc)+E(xc)   XCENC  =       152.22878613
  PAW double counting   =      4056.49253429    -4067.23149733
  entropy T*S    EENTRO =        -0.00000000
  eigenvalues    EBANDS =      -752.29554968
  atomic energy  EATOM  =      2134.32377930
  ---------------------------------------------------
  free energy    TOTEN  =      -133.73255411 eV

  energy without entropy =     -133.73255411  energy(sigma->0) =     -133.73255411
  exchange ACFDT corr.  =        -0.00000000  see jH, gK, PRB 81, 115126


--------------------------------------------------------------------------------------------------------




--------------------------------------- Iteration      1(  16)  ---------------------------------------


    POTLOK:  cpu time      0.8576: real time      0.8613
    SETDIJ:  cpu time      0.0023: real time      0.0023
    TRIAL :  cpu time      5.1740: real time      5.2045
    CORREC:  cpu time      0.0003: real time      0.0003
    CHARGE:  cpu time      0.1097: real time      0.1112
    --------------------------------------------
      LOOP:  cpu time      6.1440: real time      6.1797

 eigenvalue-minimisations  :     0
 total energy-change (2. order) :-0.2272190E-01  (-0.1618442E-01)
 number of electron      51.9999998 magnetization 
 augmentation part        2.2868876 magnetization 

 DIPCOR: dipole corrections for dipol
 direction  1 min pos     1, direction  2 min pos     1, direction  3 min pos     1,
 dipolmoment           0.128275      0.224009     -0.305709 electrons x Angstroem
 Tr[quadrupol]        30.293699

 energy correction for charged system         0.000000 eV
 dipol+quadrupol energy correction           -0.000604 eV
 added-field ion interaction         -0.004535 eV  (added to PSCEN)


 Free energy of the ion-electron system (eV)
  ---------------------------------------------------
  alpha Z        PSCENC =         1.41111613
  Ewald energy   TEWEN  =      4180.07565827
  -Hartree energ DENC   =     -5956.80946597
  -exchange      EXHF   =       118.10458620
  -V(xc)+E(xc)   XCENC  =       152.22019302
  PAW double counting   =      4058.81992977    -4069.55686912
  entropy T*S    EENTRO =        -0.00000000
  eigenvalues    EBANDS =      -752.34420360
  atomic energy  EATOM  =      2134.32377930
  ---------------------------------------------------
  free energy    TOTEN  =      -133.75527601 eV

  energy without entropy =     -133.75527601  energy(sigma->0) =     -133.75527601
  exchange ACFDT corr.  =        -0.00000000  see jH, gK, PRB 81, 115126


--------------------------------------------------------------------------------------------------------




--------------------------------------- Iteration      1(  17)  ---------------------------------------


    POTLOK:  cpu time      0.8559: real time      0.8590
    SETDIJ:  cpu time      0.0032: real time      0.0032
    TRIAL :  cpu time      5.1645: real time      5.1967
    CORREC:  cpu time      0.0002: real time      0.0003
    CHARGE:  cpu time      0.1108: real time      0.1114
    --------------------------------------------
      LOOP:  cpu time      6.1348: real time      6.1708

 eigenvalue-minimisations  :     0
 total energy-change (2. order) :-0.1178996E-01  (-0.7842123E-02)
 number of electron      51.9999998 magnetization 
 augmentation part        2.2861696 magnetization 

 DIPCOR: dipole corrections for dipol
 direction  1 min pos     1, direction  2 min pos     1, direction  3 min pos     1,
 dipolmoment           0.129245      0.221390     -0.303851 electrons x Angstroem
 Tr[quadrupol]        30.275927

 energy correction for charged system         0.000000 eV
 dipol+quadrupol energy correction           -0.000596 eV
 added-field ion interaction         -0.004355 eV  (added to PSCEN)


 Free energy of the ion-electron system (eV)
  ---------------------------------------------------
  alpha Z        PSCENC =         1.41130317
  Ewald energy   TEWEN  =      4180.07565827
  -Hartree energ DENC   =     -5956.69119423
  -exchange      EXHF   =       118.09986955
  -V(xc)+E(xc)   XCENC  =       152.21162405
  PAW double counting   =      4060.68453534    -4071.41772765
  entropy T*S    EENTRO =        -0.00000000
  eigenvalues    EBANDS =      -752.46491377
  atomic energy  EATOM  =      2134.32377930
  ---------------------------------------------------
  free energy    TOTEN  =      -133.76706597 eV

  energy without entropy =     -133.76706597  energy(sigma->0) =     -133.76706597
  exchange ACFDT corr.  =        -0.00000000  see jH, gK, PRB 81, 115126


--------------------------------------------------------------------------------------------------------




--------------------------------------- Iteration      1(  18)  ---------------------------------------


    POTLOK:  cpu time      0.8551: real time      0.8587
    SETDIJ:  cpu time      0.0023: real time      0.0023
    TRIAL :  cpu time      5.1512: real time      5.1818
    CORREC:  cpu time      0.0002: real time      0.0002
    CHARGE:  cpu time      0.1103: real time      0.1114
    --------------------------------------------
      LOOP:  cpu time      6.1193: real time      6.1546

 eigenvalue-minimisations  :     0
 total energy-change (2. order) :-0.5963592E-02  (-0.4039660E-02)
 number of electron      51.9999998 magnetization 
 augmentation part        2.2858333 magnetization 

 DIPCOR: dipole corrections for dipol
 direction  1 min pos     1, direction  2 min pos     1, direction  3 min pos     1,
 dipolmoment           0.130602      0.219648     -0.302802 electrons x Angstroem
 Tr[quadrupol]        30.271264

 energy correction for charged system         0.000000 eV
 dipol+quadrupol energy correction           -0.000592 eV
 added-field ion interaction         -0.004200 eV  (added to PSCEN)


 Free energy of the ion-electron system (eV)
  ---------------------------------------------------
  alpha Z        PSCENC =         1.41146204
  Ewald energy   TEWEN  =      4180.07565827
  -Hartree energ DENC   =     -5956.61015238
  -exchange      EXHF   =       118.09858160
  -V(xc)+E(xc)   XCENC  =       152.20791534
  PAW double counting   =      4062.01965906    -4072.74965055
  entropy T*S    EENTRO =        -0.00000000
  eigenvalues    EBANDS =      -752.55028225
  atomic energy  EATOM  =      2134.32377930
  ---------------------------------------------------
  free energy    TOTEN  =      -133.77302956 eV

  energy without entropy =     -133.77302956  energy(sigma->0) =     -133.77302956
  exchange ACFDT corr.  =        -0.00000000  see jH, gK, PRB 81, 115126


--------------------------------------------------------------------------------------------------------




--------------------------------------- Iteration      1(  19)  ---------------------------------------


    POTLOK:  cpu time      0.8541: real time      0.8574
    SETDIJ:  cpu time      0.0027: real time      0.0028
    TRIAL :  cpu time      5.1437: real time      5.1762
    CORREC:  cpu time      0.0002: real time      0.0003
    CHARGE:  cpu time      0.1107: real time      0.1113
    --------------------------------------------
      LOOP:  cpu time      6.1117: real time      6.1483

 eigenvalue-minimisations  :     0
 total energy-change (2. order) :-0.3246999E-02  (-0.2309422E-02)
 number of electron      51.9999998 magnetization 
 augmentation part        2.2856355 magnetization 

 DIPCOR: dipole corrections for dipol
 direction  1 min pos     1, direction  2 min pos     1, direction  3 min pos     1,
 dipolmoment           0.131642      0.218572     -0.302549 electrons x Angstroem
 Tr[quadrupol]        30.270754

 energy correction for charged system         0.000000 eV
 dipol+quadrupol energy correction           -0.000590 eV
 added-field ion interaction         -0.004094 eV  (added to PSCEN)


 Free energy of the ion-electron system (eV)
  ---------------------------------------------------
  alpha Z        PSCENC =         1.41156992
  Ewald energy   TEWEN  =      4180.07565827
  -Hartree energ DENC   =     -5956.56516653
  -exchange      EXHF   =       118.09888729
  -V(xc)+E(xc)   XCENC  =       152.20705838
  PAW double counting   =      4062.95444957    -4073.68232087
  entropy T*S    EENTRO =        -0.00000000
  eigenvalues    EBANDS =      -752.60019189
  atomic energy  EATOM  =      2134.32377930
  ---------------------------------------------------
  free energy    TOTEN  =      -133.77627656 eV

  energy without entropy =     -133.77627656  energy(sigma->0) =     -133.77627656
  exchange ACFDT corr.  =        -0.00000000  see jH, gK, PRB 81, 115126


--------------------------------------------------------------------------------------------------------




--------------------------------------- Iteration      1(  20)  ---------------------------------------


    POTLOK:  cpu time      0.8513: real time      0.8548
    SETDIJ:  cpu time      0.0055: real time      0.0055
    TRIAL :  cpu time      5.1635: real time      5.1957
    CORREC:  cpu time      0.0003: real time      0.0003
    CHARGE:  cpu time      0.1104: real time      0.1113
    --------------------------------------------
      LOOP:  cpu time      6.1312: real time      6.1677

 eigenvalue-minimisations  :     0
 total energy-change (2. order) :-0.1940919E-02  (-0.1398308E-02)
 number of electron      51.9999998 magnetization 
 augmentation part        2.2854656 magnetization 

 DIPCOR: dipole corrections for dipol
 direction  1 min pos     1, direction  2 min pos     1, direction  3 min pos     1,
 dipolmoment           0.132179      0.217830     -0.302562 electrons x Angstroem
 Tr[quadrupol]        30.270549

 energy correction for charged system         0.000000 eV
 dipol+quadrupol energy correction           -0.000590 eV
 added-field ion interaction         -0.004029 eV  (added to PSCEN)


 Free energy of the ion-electron system (eV)
  ---------------------------------------------------
  alpha Z        PSCENC =         1.41163557
  Ewald energy   TEWEN  =      4180.07565827
  -Hartree energ DENC   =     -5956.53475088
  -exchange      EXHF   =       118.09892170
  -V(xc)+E(xc)   XCENC  =       152.20661601
  PAW double counting   =      4063.60587626    -4074.33228065
  entropy T*S    EENTRO =        -0.00000000
  eigenvalues    EBANDS =      -752.63367307
  atomic energy  EATOM  =      2134.32377930
  ---------------------------------------------------
  free energy    TOTEN  =      -133.77821748 eV

  energy without entropy =     -133.77821748  energy(sigma->0) =     -133.77821748
  exchange ACFDT corr.  =        -0.00000000  see jH, gK, PRB 81, 115126


--------------------------------------------------------------------------------------------------------




--------------------------------------- Iteration      1(  21)  ---------------------------------------


    POTLOK:  cpu time      0.8541: real time      0.8576
    SETDIJ:  cpu time      0.0027: real time      0.0027
    TRIAL :  cpu time      5.1776: real time      5.2092
    CORREC:  cpu time      0.0002: real time      0.0003
    CHARGE:  cpu time      0.1117: real time      0.1124
    --------------------------------------------
      LOOP:  cpu time      6.1464: real time      6.1824

 eigenvalue-minimisations  :     0
 total energy-change (2. order) :-0.1200152E-02  (-0.8543217E-03)
 number of electron      51.9999998 magnetization 
 augmentation part        2.2853275 magnetization 

 DIPCOR: dipole corrections for dipol
 direction  1 min pos     1, direction  2 min pos     1, direction  3 min pos     1,
 dipolmoment           0.132394      0.217265     -0.302561 electrons x Angstroem
 Tr[quadrupol]        30.270140

 energy correction for charged system         0.000000 eV
 dipol+quadrupol energy correction           -0.000589 eV
 added-field ion interaction         -0.003989 eV  (added to PSCEN)


 Free energy of the ion-electron system (eV)
  ---------------------------------------------------
  alpha Z        PSCENC =         1.41167620
  Ewald energy   TEWEN  =      4180.07565827
  -Hartree energ DENC   =     -5956.51089520
  -exchange      EXHF   =       118.09850042
  -V(xc)+E(xc)   XCENC  =       152.20558027
  PAW double counting   =      4064.02636139    -4074.75161500
  entropy T*S    EENTRO =        -0.00000000
  eigenvalues    EBANDS =      -752.65846329
  atomic energy  EATOM  =      2134.32377930
  ---------------------------------------------------
  free energy    TOTEN  =      -133.77941763 eV

  energy without entropy =     -133.77941763  energy(sigma->0) =     -133.77941763
  exchange ACFDT corr.  =        -0.00000000  see jH, gK, PRB 81, 115126


--------------------------------------------------------------------------------------------------------




--------------------------------------- Iteration      1(  22)  ---------------------------------------


    POTLOK:  cpu time      0.8541: real time      0.8576
    SETDIJ:  cpu time      0.0024: real time      0.0024
    TRIAL :  cpu time      5.1685: real time      5.2007
    CORREC:  cpu time      0.0003: real time      0.0003
    CHARGE:  cpu time      0.1100: real time      0.1114
    --------------------------------------------
      LOOP:  cpu time      6.1355: real time      6.1727

 eigenvalue-minimisations  :     0
 total energy-change (2. order) :-0.7501598E-03  (-0.5455038E-03)
 number of electron      51.9999998 magnetization 
 augmentation part        2.2852291 magnetization 

 DIPCOR: dipole corrections for dipol
 direction  1 min pos     1, direction  2 min pos     1, direction  3 min pos     1,
 dipolmoment           0.132488      0.216812     -0.302571 electrons x Angstroem
 Tr[quadrupol]        30.269420

 energy correction for charged system         0.000000 eV
 dipol+quadrupol energy correction           -0.000588 eV
 added-field ion interaction         -0.003961 eV  (added to PSCEN)


 Free energy of the ion-electron system (eV)
  ---------------------------------------------------
  alpha Z        PSCENC =         1.41170479
  Ewald energy   TEWEN  =      4180.07565827
  -Hartree energ DENC   =     -5956.49894987
  -exchange      EXHF   =       118.09822427
  -V(xc)+E(xc)   XCENC  =       152.20489384
  PAW double counting   =      4064.27274755    -4074.99710060
  entropy T*S    EENTRO =        -0.00000000
  eigenvalues    EBANDS =      -752.67112535
  atomic energy  EATOM  =      2134.32377930
  ---------------------------------------------------
  free energy    TOTEN  =      -133.78016779 eV

  energy without entropy =     -133.78016779  energy(sigma->0) =     -133.78016779
  exchange ACFDT corr.  =        -0.00000000  see jH, gK, PRB 81, 115126


--------------------------------------------------------------------------------------------------------




--------------------------------------- Iteration      1(  23)  ---------------------------------------


    POTLOK:  cpu time      0.8553: real time      0.8582
    SETDIJ:  cpu time      0.0022: real time      0.0022
    TRIAL :  cpu time      5.1600: real time      5.1912
    CORREC:  cpu time      0.0002: real time      0.0002
    CHARGE:  cpu time      0.1103: real time      0.1111
    --------------------------------------------
      LOOP:  cpu time      6.1387: real time      6.1758

 eigenvalue-minimisations  :     0
 total energy-change (2. order) :-0.4868490E-03  (-0.3652449E-03)
 number of electron      51.9999998 magnetization 
 augmentation part        2.2851645 magnetization 

 DIPCOR: dipole corrections for dipol
 direction  1 min pos     1, direction  2 min pos     1, direction  3 min pos     1,
 dipolmoment           0.132584      0.216471     -0.302582 electrons x Angstroem
 Tr[quadrupol]        30.268847

 energy correction for charged system         0.000000 eV
 dipol+quadrupol energy correction           -0.000588 eV
 added-field ion interaction         -0.003939 eV  (added to PSCEN)


 Free energy of the ion-electron system (eV)
  ---------------------------------------------------
  alpha Z        PSCENC =         1.41172766
  Ewald energy   TEWEN  =      4180.07565827
  -Hartree energ DENC   =     -5956.49375244
  -exchange      EXHF   =       118.09821922
  -V(xc)+E(xc)   XCENC  =       152.20470996
  PAW double counting   =      4064.41010062    -4075.13379101
  entropy T*S    EENTRO =        -0.00000000
  eigenvalues    EBANDS =      -752.67730621
  atomic energy  EATOM  =      2134.32377930
  ---------------------------------------------------
  free energy    TOTEN  =      -133.78065464 eV

  energy without entropy =     -133.78065464  energy(sigma->0) =     -133.78065464
  exchange ACFDT corr.  =        -0.00000000  see jH, gK, PRB 81, 115126


--------------------------------------------------------------------------------------------------------




--------------------------------------- Iteration      1(  24)  ---------------------------------------


    POTLOK:  cpu time      0.8532: real time      0.8574
    SETDIJ:  cpu time      0.0033: real time      0.0033
    TRIAL :  cpu time      5.1444: real time      5.1752
    CORREC:  cpu time      0.0002: real time      0.0002
    CHARGE:  cpu time      0.1103: real time      0.1113
    --------------------------------------------
      LOOP:  cpu time      6.1116: real time      6.1477

 eigenvalue-minimisations  :     0
 total energy-change (2. order) :-0.3302336E-03  (-0.2575208E-03)
 number of electron      51.9999998 magnetization 
 augmentation part        2.2851237 magnetization 

 DIPCOR: dipole corrections for dipol
 direction  1 min pos     1, direction  2 min pos     1, direction  3 min pos     1,
 dipolmoment           0.132719      0.216275     -0.302639 electrons x Angstroem
 Tr[quadrupol]        30.268693

 energy correction for charged system         0.000000 eV
 dipol+quadrupol energy correction           -0.000588 eV
 added-field ion interaction         -0.003922 eV  (added to PSCEN)


 Free energy of the ion-electron system (eV)
  ---------------------------------------------------
  alpha Z        PSCENC =         1.41174472
  Ewald energy   TEWEN  =      4180.07565827
  -Hartree energ DENC   =     -5956.48851207
  -exchange      EXHF   =       118.09830210
  -V(xc)+E(xc)   XCENC  =       152.20460824
  PAW double counting   =      4064.48499270    -4075.20822399
  entropy T*S    EENTRO =        -0.00000000
  eigenvalues    EBANDS =      -752.68333415
  atomic energy  EATOM  =      2134.32377930
  ---------------------------------------------------
  free energy    TOTEN  =      -133.78098488 eV

  energy without entropy =     -133.78098488  energy(sigma->0) =     -133.78098488
  exchange ACFDT corr.  =        -0.00000000  see jH, gK, PRB 81, 115126


--------------------------------------------------------------------------------------------------------




--------------------------------------- Iteration      1(  25)  ---------------------------------------


    POTLOK:  cpu time      0.8535: real time      0.8568
    SETDIJ:  cpu time      0.0022: real time      0.0022
    TRIAL :  cpu time      5.1407: real time      5.1734
    CORREC:  cpu time      0.0002: real time      0.0002
    CHARGE:  cpu time      0.1107: real time      0.1116
    --------------------------------------------
      LOOP:  cpu time      6.1076: real time      6.1445

 eigenvalue-minimisations  :     0
 total energy-change (2. order) :-0.2351701E-03  (-0.1892364E-03)
 number of electron      51.9999998 magnetization 
 augmentation part        2.2850941 magnetization 

 DIPCOR: dipole corrections for dipol
 direction  1 min pos     1, direction  2 min pos     1, direction  3 min pos     1,
 dipolmoment           0.132852      0.216116     -0.302665 electrons x Angstroem
 Tr[quadrupol]        30.268342

 energy correction for charged system         0.000000 eV
 dipol+quadrupol energy correction           -0.000588 eV
 added-field ion interaction         -0.003907 eV  (added to PSCEN)


 Free energy of the ion-electron system (eV)
  ---------------------------------------------------
  alpha Z        PSCENC =         1.41175954
  Ewald energy   TEWEN  =      4180.07565827
  -Hartree energ DENC   =     -5956.48758416
  -exchange      EXHF   =       118.09844922
  -V(xc)+E(xc)   XCENC  =       152.20463327
  PAW double counting   =      4064.53308306    -4075.25601526
  entropy T*S    EENTRO =        -0.00000000
  eigenvalues    EBANDS =      -752.68498328
  atomic energy  EATOM  =      2134.32377930
  ---------------------------------------------------
  free energy    TOTEN  =      -133.78122005 eV

  energy without entropy =     -133.78122005  energy(sigma->0) =     -133.78122005
  exchange ACFDT corr.  =        -0.00000000  see jH, gK, PRB 81, 115126


--------------------------------------------------------------------------------------------------------




--------------------------------------- Iteration      1(  26)  ---------------------------------------


    POTLOK:  cpu time      0.8535: real time      0.8569
    SETDIJ:  cpu time      0.0027: real time      0.0027
    TRIAL :  cpu time      5.1329: real time      5.1639
    CORREC:  cpu time      0.0003: real time      0.0003
    CHARGE:  cpu time      0.1104: real time      0.1113
    --------------------------------------------
      LOOP:  cpu time      6.1005: real time      6.1357

 eigenvalue-minimisations  :     0
 total energy-change (2. order) :-0.1733005E-03  (-0.1432945E-03)
 number of electron      51.9999998 magnetization 
 augmentation part        2.2850781 magnetization 

 DIPCOR: dipole corrections for dipol
 direction  1 min pos     1, direction  2 min pos     1, direction  3 min pos     1,
 dipolmoment           0.133018      0.216042     -0.302676 electrons x Angstroem
 Tr[quadrupol]        30.268030

 energy correction for charged system         0.000000 eV
 dipol+quadrupol energy correction           -0.000588 eV
 added-field ion interaction         -0.003895 eV  (added to PSCEN)


 Free energy of the ion-electron system (eV)
  ---------------------------------------------------
  alpha Z        PSCENC =         1.41177157
  Ewald energy   TEWEN  =      4180.07565827
  -Hartree energ DENC   =     -5956.48591545
  -exchange      EXHF   =       118.09854834
  -V(xc)+E(xc)   XCENC  =       152.20464296
  PAW double counting   =      4064.56536303    -4075.28809051
  entropy T*S    EENTRO =        -0.00000000
  eigenvalues    EBANDS =      -752.68715087
  atomic energy  EATOM  =      2134.32377930
  ---------------------------------------------------
  free energy    TOTEN  =      -133.78139335 eV

  energy without entropy =     -133.78139335  energy(sigma->0) =     -133.78139335
  exchange ACFDT corr.  =        -0.00000000  see jH, gK, PRB 81, 115126


--------------------------------------------------------------------------------------------------------




--------------------------------------- Iteration      1(  27)  ---------------------------------------


    POTLOK:  cpu time      0.8536: real time      0.8570
    SETDIJ:  cpu time      0.0041: real time      0.0041
    TRIAL :  cpu time      5.1494: real time      5.1813
    CORREC:  cpu time      0.0003: real time      0.0003
    CHARGE:  cpu time      0.1103: real time      0.1111
    --------------------------------------------
      LOOP:  cpu time      6.1179: real time      6.1541

 eigenvalue-minimisations  :     0
 total energy-change (2. order) :-0.1300905E-03  (-0.1100216E-03)
 number of electron      51.9999998 magnetization 
 augmentation part        2.2850663 magnetization 

 DIPCOR: dipole corrections for dipol
 direction  1 min pos     1, direction  2 min pos     1, direction  3 min pos     1,
 dipolmoment           0.133122      0.215930     -0.302592 electrons x Angstroem
 Tr[quadrupol]        30.267682

 energy correction for charged system         0.000000 eV
 dipol+quadrupol energy correction           -0.000588 eV
 added-field ion interaction         -0.003884 eV  (added to PSCEN)


 Free energy of the ion-electron system (eV)
  ---------------------------------------------------
  alpha Z        PSCENC =         1.41178258
  Ewald energy   TEWEN  =      4180.07565827
  -Hartree energ DENC   =     -5956.48646790
  -exchange      EXHF   =       118.09867627
  -V(xc)+E(xc)   XCENC  =       152.20463026
  PAW double counting   =      4064.59014866    -4075.31275635
  entropy T*S    EENTRO =        -0.00000000
  eigenvalues    EBANDS =      -752.68697453
  atomic energy  EATOM  =      2134.32377930
  ---------------------------------------------------
  free energy    TOTEN  =      -133.78152344 eV

  energy without entropy =     -133.78152344  energy(sigma->0) =     -133.78152344
  exchange ACFDT corr.  =        -0.00000000  see jH, gK, PRB 81, 115126


--------------------------------------------------------------------------------------------------------




--------------------------------------- Iteration      1(  28)  ---------------------------------------


    POTLOK:  cpu time      0.8542: real time      0.8576
    SETDIJ:  cpu time      0.0022: real time      0.0022
    TRIAL :  cpu time      5.1533: real time      5.1879
    CORREC:  cpu time      0.0001: real time      0.0001
    CHARGE:  cpu time      0.1105: real time      0.1115
    --------------------------------------------
      LOOP:  cpu time      6.1206: real time      6.1595

 eigenvalue-minimisations  :     0
 total energy-change (2. order) :-0.9944549E-04  (-0.8552397E-04)
 number of electron      51.9999998 magnetization 
 augmentation part        2.2850627 magnetization 

 DIPCOR: dipole corrections for dipol
 direction  1 min pos     1, direction  2 min pos     1, direction  3 min pos     1,
 dipolmoment           0.133314      0.215903     -0.302580 electrons x Angstroem
 Tr[quadrupol]        30.267349

 energy correction for charged system         0.000000 eV
 dipol+quadrupol energy correction           -0.000588 eV
 added-field ion interaction         -0.003873 eV  (added to PSCEN)


 Free energy of the ion-electron system (eV)
  ---------------------------------------------------
  alpha Z        PSCENC =         1.41179334
  Ewald energy   TEWEN  =      4180.07565827
  -Hartree energ DENC   =     -5956.48665999
  -exchange      EXHF   =       118.09877998
  -V(xc)+E(xc)   XCENC  =       152.20469840
  PAW double counting   =      4064.60768645    -4075.33020999
  entropy T*S    EENTRO =        -0.00000000
  eigenvalues    EBANDS =      -752.68714864
  atomic energy  EATOM  =      2134.32377930
  ---------------------------------------------------
  free energy    TOTEN  =      -133.78162288 eV

  energy without entropy =     -133.78162288  energy(sigma->0) =     -133.78162288
  exchange ACFDT corr.  =        -0.00000000  see jH, gK, PRB 81, 115126


--------------------------------------------------------------------------------------------------------




--------------------------------------- Iteration      1(  29)  ---------------------------------------


    POTLOK:  cpu time      0.8533: real time      0.8575
    SETDIJ:  cpu time      0.0023: real time      0.0023
    TRIAL :  cpu time      5.1545: real time      5.1910
    CORREC:  cpu time      0.0002: real time      0.0002
    CHARGE:  cpu time      0.1102: real time      0.1112
    --------------------------------------------
      LOOP:  cpu time      6.1209: real time      6.1626

 eigenvalue-minimisations  :     0
 total energy-change (2. order) :-0.7658874E-04  (-0.6632518E-04)
 number of electron      51.9999998 magnetization 
 augmentation part        2.2850549 magnetization 

 DIPCOR: dipole corrections for dipol
 direction  1 min pos     1, direction  2 min pos     1, direction  3 min pos     1,
 dipolmoment           0.133385      0.215806     -0.302447 electrons x Angstroem
 Tr[quadrupol]        30.266955

 energy correction for charged system         0.000000 eV
 dipol+quadrupol energy correction           -0.000587 eV
 added-field ion interaction         -0.003865 eV  (added to PSCEN)


 Free energy of the ion-electron system (eV)
  ---------------------------------------------------
  alpha Z        PSCENC =         1.41180208
  Ewald energy   TEWEN  =      4180.07565827
  -Hartree energ DENC   =     -5956.48954111
  -exchange      EXHF   =       118.09892824
  -V(xc)+E(xc)   XCENC  =       152.20479506
  PAW double counting   =      4064.62235932    -4075.34484382
  entropy T*S    EENTRO =        -0.00000000
  eigenvalues    EBANDS =      -752.68463683
  atomic energy  EATOM  =      2134.32377930
  ---------------------------------------------------
  free energy    TOTEN  =      -133.78169947 eV

  energy without entropy =     -133.78169947  energy(sigma->0) =     -133.78169947
  exchange ACFDT corr.  =        -0.00000000  see jH, gK, PRB 81, 115126


--------------------------------------------------------------------------------------------------------




--------------------------------------- Iteration      1(  30)  ---------------------------------------


    POTLOK:  cpu time      0.8559: real time      0.8601
    SETDIJ:  cpu time      0.0022: real time      0.0022
    TRIAL :  cpu time      5.1546: real time      5.1915
    CORREC:  cpu time      0.0001: real time      0.0001
    CHARGE:  cpu time      0.1100: real time      0.1111
    --------------------------------------------
      LOOP:  cpu time      6.1231: real time      6.1652

 eigenvalue-minimisations  :     0
 total energy-change (2. order) :-0.5785948E-04  (-0.5292397E-04)
 number of electron      51.9999998 magnetization 
 augmentation part        2.2850559 magnetization 

 DIPCOR: dipole corrections for dipol
 direction  1 min pos     1, direction  2 min pos     1, direction  3 min pos     1,
 dipolmoment           0.133546      0.215772     -0.302448 electrons x Angstroem
 Tr[quadrupol]        30.266854

 energy correction for charged system         0.000000 eV
 dipol+quadrupol energy correction           -0.000588 eV
 added-field ion interaction         -0.003855 eV  (added to PSCEN)


 Free energy of the ion-electron system (eV)
  ---------------------------------------------------
  alpha Z        PSCENC =         1.41181154
  Ewald energy   TEWEN  =      4180.07565827
  -Hartree energ DENC   =     -5956.48736239
  -exchange      EXHF   =       118.09895158
  -V(xc)+E(xc)   XCENC  =       152.20470285
  PAW double counting   =      4064.62794380    -4075.35038186
  entropy T*S    EENTRO =        -0.00000000
  eigenvalues    EBANDS =      -752.68686043
  atomic energy  EATOM  =      2134.32377930
  ---------------------------------------------------
  free energy    TOTEN  =      -133.78175733 eV

  energy without entropy =     -133.78175733  energy(sigma->0) =     -133.78175733
  exchange ACFDT corr.  =        -0.00000000  see jH, gK, PRB 81, 115126


--------------------------------------------------------------------------------------------------------




--------------------------------------- Iteration      1(  31)  ---------------------------------------


    POTLOK:  cpu time      0.8529: real time      0.8572
    SETDIJ:  cpu time      0.0026: real time      0.0026
    TRIAL :  cpu time      5.1408: real time      5.1763
    CORREC:  cpu time      0.0001: real time      0.0001
    CHARGE:  cpu time      0.1104: real time      0.1115
    --------------------------------------------
      LOOP:  cpu time      6.1072: real time      6.1481

 eigenvalue-minimisations  :     0
 total energy-change (2. order) :-0.4465028E-04  (-0.4136807E-04)
 number of electron      51.9999998 magnetization 
 augmentation part        2.2850479 magnetization 

 DIPCOR: dipole corrections for dipol
 direction  1 min pos     1, direction  2 min pos     1, direction  3 min pos     1,
 dipolmoment           0.133584      0.215699     -0.302334 electrons x Angstroem
 Tr[quadrupol]        30.266304

 energy correction for charged system         0.000000 eV
 dipol+quadrupol energy correction           -0.000587 eV
 added-field ion interaction         -0.003850 eV  (added to PSCEN)


 Free energy of the ion-electron system (eV)
  ---------------------------------------------------
  alpha Z        PSCENC =         1.41181735
  Ewald energy   TEWEN  =      4180.07565827
  -Hartree energ DENC   =     -5956.49265842
  -exchange      EXHF   =       118.09912889
  -V(xc)+E(xc)   XCENC  =       152.20491873
  PAW double counting   =      4064.63735897    -4075.35978736
  entropy T*S    EENTRO =        -0.00000000
  eigenvalues    EBANDS =      -752.68201771
  atomic energy  EATOM  =      2134.32377930
  ---------------------------------------------------
  free energy    TOTEN  =      -133.78180198 eV

  energy without entropy =     -133.78180198  energy(sigma->0) =     -133.78180198
  exchange ACFDT corr.  =        -0.00000000  see jH, gK, PRB 81, 115126


--------------------------------------------------------------------------------------------------------




--------------------------------------- Iteration      1(  32)  ---------------------------------------


    POTLOK:  cpu time      0.8531: real time      0.8569
    SETDIJ:  cpu time      0.0027: real time      0.0027
    TRIAL :  cpu time      5.1393: real time      5.1769
    CORREC:  cpu time      0.0002: real time      0.0002
    CHARGE:  cpu time      0.1105: real time      0.1115
    --------------------------------------------
      LOOP:  cpu time      6.1060: real time      6.1484

 eigenvalue-minimisations  :     0
 total energy-change (2. order) :-0.3397717E-04  (-0.3287530E-04)
 number of electron      51.9999998 magnetization 
 augmentation part        2.2850504 magnetization 

 DIPCOR: dipole corrections for dipol
 direction  1 min pos     1, direction  2 min pos     1, direction  3 min pos     1,
 dipolmoment           0.133718      0.215667     -0.302290 electrons x Angstroem
 Tr[quadrupol]        30.266363

 energy correction for charged system         0.000000 eV
 dipol+quadrupol energy correction           -0.000587 eV
 added-field ion interaction         -0.003841 eV  (added to PSCEN)


 Free energy of the ion-electron system (eV)
  ---------------------------------------------------
  alpha Z        PSCENC =         1.41182562
  Ewald energy   TEWEN  =      4180.07565827
  -Hartree energ DENC   =     -5956.48894721
  -exchange      EXHF   =       118.09909750
  -V(xc)+E(xc)   XCENC  =       152.20473080
  PAW double counting   =      4064.63596092    -4075.35835374
  entropy T*S    EENTRO =        -0.00000000
  eigenvalues    EBANDS =      -752.68558743
  atomic energy  EATOM  =      2134.32377930
  ---------------------------------------------------
  free energy    TOTEN  =      -133.78183596 eV

  energy without entropy =     -133.78183596  energy(sigma->0) =     -133.78183596
  exchange ACFDT corr.  =        -0.00000000  see jH, gK, PRB 81, 115126


--------------------------------------------------------------------------------------------------------




--------------------------------------- Iteration      1(  33)  ---------------------------------------


    POTLOK:  cpu time      0.8512: real time      0.8551
    SETDIJ:  cpu time      0.0060: real time      0.0060
    TRIAL :  cpu time      5.1664: real time      5.2031
    CORREC:  cpu time      0.0001: real time      0.0001
    CHARGE:  cpu time      0.1105: real time      0.1115
    --------------------------------------------
      LOOP:  cpu time      6.1452: real time      6.1890

 eigenvalue-minimisations  :     0
 total energy-change (2. order) :-0.2820948E-04  (-0.2554529E-04)
 number of electron      51.9999998 magnetization 
 augmentation part        2.2850440 magnetization 

 DIPCOR: dipole corrections for dipol
 direction  1 min pos     1, direction  2 min pos     1, direction  3 min pos     1,
 dipolmoment           0.133754      0.215589     -0.302225 electrons x Angstroem
 Tr[quadrupol]        30.265697

 energy correction for charged system         0.000000 eV
 dipol+quadrupol energy correction           -0.000587 eV
 added-field ion interaction         -0.003836 eV  (added to PSCEN)


 Free energy of the ion-electron system (eV)
  ---------------------------------------------------
  alpha Z        PSCENC =         1.41183160
  Ewald energy   TEWEN  =      4180.07565827
  -Hartree energ DENC   =     -5956.49540836
  -exchange      EXHF   =       118.09927498
  -V(xc)+E(xc)   XCENC  =       152.20498131
  PAW double counting   =      4064.64306793    -4075.36546311
  entropy T*S    EENTRO =        -0.00000000
  eigenvalues    EBANDS =      -752.67958609
  atomic energy  EATOM  =      2134.32377930
  ---------------------------------------------------
  free energy    TOTEN  =      -133.78186417 eV

  energy without entropy =     -133.78186417  energy(sigma->0) =     -133.78186417
  exchange ACFDT corr.  =        -0.00000000  see jH, gK, PRB 81, 115126


--------------------------------------------------------------------------------------------------------




--------------------------------------- Iteration      1(  34)  ---------------------------------------


    POTLOK:  cpu time      0.8531: real time      0.8572
    SETDIJ:  cpu time      0.0027: real time      0.0027
    TRIAL :  cpu time      5.1599: real time      5.1982
    CORREC:  cpu time      0.0001: real time      0.0001
    CHARGE:  cpu time      0.1103: real time      0.1115
    --------------------------------------------
      LOOP:  cpu time      6.1263: real time      6.1700

 eigenvalue-minimisations  :     0
 total energy-change (2. order) :-0.2112005E-04  (-0.2140071E-04)
 number of electron      51.9999998 magnetization 
 augmentation part        2.2850470 magnetization 

 DIPCOR: dipole corrections for dipol
 direction  1 min pos     1, direction  2 min pos     1, direction  3 min pos     1,
 dipolmoment           0.133832      0.215566     -0.302146 electrons x Angstroem
 Tr[quadrupol]        30.265725

 energy correction for charged system         0.000000 eV
 dipol+quadrupol energy correction           -0.000587 eV
 added-field ion interaction         -0.003831 eV  (added to PSCEN)


 Free energy of the ion-electron system (eV)
  ---------------------------------------------------
  alpha Z        PSCENC =         1.41183650
  Ewald energy   TEWEN  =      4180.07565827
  -Hartree energ DENC   =     -5956.49211413
  -exchange      EXHF   =       118.09923310
  -V(xc)+E(xc)   XCENC  =       152.20477921
  PAW double counting   =      4064.63980038    -4075.36217084
  entropy T*S    EENTRO =        -0.00000000
  eigenvalues    EBANDS =      -752.68268709
  atomic energy  EATOM  =      2134.32377930
  ---------------------------------------------------
  free energy    TOTEN  =      -133.78188529 eV

  energy without entropy =     -133.78188529  energy(sigma->0) =     -133.78188529
  exchange ACFDT corr.  =        -0.00000000  see jH, gK, PRB 81, 115126


--------------------------------------------------------------------------------------------------------




--------------------------------------- Iteration      1(  35)  ---------------------------------------


    POTLOK:  cpu time      0.8541: real time      0.8580
    SETDIJ:  cpu time      0.0025: real time      0.0025
    TRIAL :  cpu time      5.1557: real time      5.1936
    CORREC:  cpu time      0.0002: real time      0.0002
    CHARGE:  cpu time      0.1104: real time      0.1114
    --------------------------------------------
      LOOP:  cpu time      6.1231: real time      6.1659

 eigenvalue-minimisations  :     0
 total energy-change (2. order) :-0.1753605E-04  (-0.1769101E-04)
 number of electron      51.9999998 magnetization 
 augmentation part        2.2850423 magnetization 

 DIPCOR: dipole corrections for dipol
 direction  1 min pos     1, direction  2 min pos     1, direction  3 min pos     1,
 dipolmoment           0.133890      0.215490     -0.302111 electrons x Angstroem
 Tr[quadrupol]        30.265211

 energy correction for charged system         0.000000 eV
 dipol+quadrupol energy correction           -0.000587 eV
 added-field ion interaction         -0.003824 eV  (added to PSCEN)


 Free energy of the ion-electron system (eV)
  ---------------------------------------------------
  alpha Z        PSCENC =         1.41184337
  Ewald energy   TEWEN  =      4180.07565827
  -Hartree energ DENC   =     -5956.49765211
  -exchange      EXHF   =       118.09938515
  -V(xc)+E(xc)   XCENC  =       152.20501140
  PAW double counting   =      4064.64537842    -4075.36775583
  entropy T*S    EENTRO =        -0.00000000
  eigenvalues    EBANDS =      -752.67755079
  atomic energy  EATOM  =      2134.32377930
  ---------------------------------------------------
  free energy    TOTEN  =      -133.78190283 eV

  energy without entropy =     -133.78190283  energy(sigma->0) =     -133.78190283
  exchange ACFDT corr.  =        -0.00000000  see jH, gK, PRB 81, 115126


--------------------------------------------------------------------------------------------------------




--------------------------------------- Iteration      1(  36)  ---------------------------------------


    POTLOK:  cpu time      0.8535: real time      0.8572
    SETDIJ:  cpu time      0.0038: real time      0.0038
    TRIAL :  cpu time      5.1595: real time      5.1955
    CORREC:  cpu time      0.0002: real time      0.0002
    CHARGE:  cpu time      0.1102: real time      0.1112
    --------------------------------------------
      LOOP:  cpu time      6.1275: real time      6.1682

 eigenvalue-minimisations  :     0
 total energy-change (2. order) :-0.1459862E-04  (-0.1575409E-04)
 number of electron      51.9999998 magnetization 
 augmentation part        2.2850456 magnetization 

 DIPCOR: dipole corrections for dipol
 direction  1 min pos     1, direction  2 min pos     1, direction  3 min pos     1,
 dipolmoment           0.133950      0.215476     -0.302054 electrons x Angstroem
 Tr[quadrupol]        30.265184

 energy correction for charged system         0.000000 eV
 dipol+quadrupol energy correction           -0.000587 eV
 added-field ion interaction         -0.003821 eV  (added to PSCEN)


 Free energy of the ion-electron system (eV)
  ---------------------------------------------------
  alpha Z        PSCENC =         1.41184708
  Ewald energy   TEWEN  =      4180.07565827
  -Hartree energ DENC   =     -5956.49515240
  -exchange      EXHF   =       118.09934912
  -V(xc)+E(xc)   XCENC  =       152.20483009
  PAW double counting   =      4064.64278546    -4075.36514634
  entropy T*S    EENTRO =        -0.00000000
  eigenvalues    EBANDS =      -752.67986801
  atomic energy  EATOM  =      2134.32377930
  ---------------------------------------------------
  free energy    TOTEN  =      -133.78191742 eV

  energy without entropy =     -133.78191742  energy(sigma->0) =     -133.78191742
  exchange ACFDT corr.  =        -0.00000000  see jH, gK, PRB 81, 115126


--------------------------------------------------------------------------------------------------------




--------------------------------------- Iteration      1(  37)  ---------------------------------------


    POTLOK:  cpu time      0.8523: real time      0.8571
    SETDIJ:  cpu time      0.0036: real time      0.0036
    TRIAL :  cpu time      5.1321: real time      5.1691
    CORREC:  cpu time      0.0003: real time      0.0002
    CHARGE:  cpu time      0.1102: real time      0.1112
    --------------------------------------------
      LOOP:  cpu time      6.0986: real time      6.1415

 eigenvalue-minimisations  :     0
 total energy-change (2. order) :-0.1219219E-04  (-0.1368612E-04)
 number of electron      51.9999998 magnetization 
 augmentation part        2.2850409 magnetization 

 DIPCOR: dipole corrections for dipol
 direction  1 min pos     1, direction  2 min pos     1, direction  3 min pos     1,
 dipolmoment           0.133986      0.215403     -0.302005 electrons x Angstroem
 Tr[quadrupol]        30.264716

 energy correction for charged system         0.000000 eV
 dipol+quadrupol energy correction           -0.000586 eV
 added-field ion interaction         -0.003815 eV  (added to PSCEN)


 Free energy of the ion-electron system (eV)
  ---------------------------------------------------
  alpha Z        PSCENC =         1.41185262
  Ewald energy   TEWEN  =      4180.07565827
  -Hartree energ DENC   =     -5956.50056655
  -exchange      EXHF   =       118.09948647
  -V(xc)+E(xc)   XCENC  =       152.20510309
  PAW double counting   =      4064.64813670    -4075.37050745
  entropy T*S    EENTRO =        -0.00000000
  eigenvalues    EBANDS =      -752.67487208
  atomic energy  EATOM  =      2134.32377930
  ---------------------------------------------------
  free energy    TOTEN  =      -133.78192962 eV

  energy without entropy =     -133.78192962  energy(sigma->0) =     -133.78192962
  exchange ACFDT corr.  =        -0.00000000  see jH, gK, PRB 81, 115126


--------------------------------------------------------------------------------------------------------




--------------------------------------- Iteration      1(  38)  ---------------------------------------


    POTLOK:  cpu time      0.8553: real time      0.8593
    SETDIJ:  cpu time      0.0023: real time      0.0023
    TRIAL :  cpu time      5.1216: real time      5.1588
    CORREC:  cpu time      0.0001: real time      0.0001
    CHARGE:  cpu time      0.1100: real time      0.1111
    --------------------------------------------
      LOOP:  cpu time      6.0898: real time      6.1320

 eigenvalue-minimisations  :     0
 total energy-change (2. order) :-0.9799408E-05  (-0.1293028E-04)
 number of electron      51.9999998 magnetization 
 augmentation part        2.2850459 magnetization 

 DIPCOR: dipole corrections for dipol
 direction  1 min pos     1, direction  2 min pos     1, direction  3 min pos     1,
 dipolmoment           0.134051      0.215405     -0.301965 electrons x Angstroem
 Tr[quadrupol]        30.264819

 energy correction for charged system         0.000000 eV
 dipol+quadrupol energy correction           -0.000586 eV
 added-field ion interaction         -0.003812 eV  (added to PSCEN)


 Free energy of the ion-electron system (eV)
  ---------------------------------------------------
  alpha Z        PSCENC =         1.41185571
  Ewald energy   TEWEN  =      4180.07565827
  -Hartree energ DENC   =     -5956.49654210
  -exchange      EXHF   =       118.09941674
  -V(xc)+E(xc)   XCENC  =       152.20480389
  PAW double counting   =      4064.64429457    -4075.36664982
  entropy T*S    EENTRO =        -0.00000000
  eigenvalues    EBANDS =      -752.67855597
  atomic energy  EATOM  =      2134.32377930
  ---------------------------------------------------
  free energy    TOTEN  =      -133.78193942 eV

  energy without entropy =     -133.78193942  energy(sigma->0) =     -133.78193942
  exchange ACFDT corr.  =        -0.00000000  see jH, gK, PRB 81, 115126


--------------------------------------------------------------------------------------------------------




--------------------------------------- Iteration      1(  39)  ---------------------------------------


    POTLOK:  cpu time      0.8530: real time      0.8567
    SETDIJ:  cpu time      0.0033: real time      0.0033
    TRIAL :  cpu time      5.1537: real time      5.1899
    CORREC:  cpu time      0.0002: real time      0.0002
    CHARGE:  cpu time      0.1102: real time      0.1112
    --------------------------------------------
      LOOP:  cpu time      6.1207: real time      6.1616

 eigenvalue-minimisations  :     0
 total energy-change (2. order) :-0.1033374E-04  (-0.1189522E-04)
 number of electron      51.9999998 magnetization 
 augmentation part        2.2850399 magnetization 

 DIPCOR: dipole corrections for dipol
 direction  1 min pos     1, direction  2 min pos     1, direction  3 min pos     1,
 dipolmoment           0.134080      0.215316     -0.301936 electrons x Angstroem
 Tr[quadrupol]        30.264291

 energy correction for charged system         0.000000 eV
 dipol+quadrupol energy correction           -0.000586 eV
 added-field ion interaction         -0.003806 eV  (added to PSCEN)


 Free energy of the ion-electron system (eV)
  ---------------------------------------------------
  alpha Z        PSCENC =         1.41186184
  Ewald energy   TEWEN  =      4180.07565827
  -Hartree energ DENC   =     -5956.50335782
  -exchange      EXHF   =       118.09958125
  -V(xc)+E(xc)   XCENC  =       152.20516095
  PAW double counting   =      4064.65128345    -4075.37365484
  entropy T*S    EENTRO =        -0.00000000
  eigenvalues    EBANDS =      -752.67226215
  atomic energy  EATOM  =      2134.32377930
  ---------------------------------------------------
  free energy    TOTEN  =      -133.78194975 eV

  energy without entropy =     -133.78194975  energy(sigma->0) =     -133.78194975
  exchange ACFDT corr.  =        -0.00000000  see jH, gK, PRB 81, 115126


--------------------------------------------------------------------------------------------------------




--------------------------------------- Iteration      1(  40)  ---------------------------------------


    POTLOK:  cpu time      0.8534: real time      0.8573
    SETDIJ:  cpu time      0.0026: real time      0.0026
    TRIAL :  cpu time      5.1190: real time      5.1572
    CORREC:  cpu time      0.0003: real time      0.0003
    CHARGE:  cpu time      0.1101: real time      0.1110
    --------------------------------------------
      LOOP:  cpu time      6.0857: real time      6.1286

 eigenvalue-minimisations  :     0
 total energy-change (2. order) :-0.7867936E-05  (-0.1118799E-04)
 number of electron      51.9999998 magnetization 
 augmentation part        2.2850463 magnetization 

 DIPCOR: dipole corrections for dipol
 direction  1 min pos     1, direction  2 min pos     1, direction  3 min pos     1,
 dipolmoment           0.134135      0.215332     -0.301875 electrons x Angstroem
 Tr[quadrupol]        30.264427

 energy correction for charged system         0.000000 eV
 dipol+quadrupol energy correction           -0.000586 eV
 added-field ion interaction         -0.003804 eV  (added to PSCEN)


 Free energy of the ion-electron system (eV)
  ---------------------------------------------------
  alpha Z        PSCENC =         1.41186367
  Ewald energy   TEWEN  =      4180.07565827
  -Hartree energ DENC   =     -5956.49859907
  -exchange      EXHF   =       118.09948772
  -V(xc)+E(xc)   XCENC  =       152.20487121
  PAW double counting   =      4064.64662071    -4075.36897284
  entropy T*S    EENTRO =        -0.00000000
  eigenvalues    EBANDS =      -752.67666659
  atomic energy  EATOM  =      2134.32377930
  ---------------------------------------------------
  free energy    TOTEN  =      -133.78195762 eV

  energy without entropy =     -133.78195762  energy(sigma->0) =     -133.78195762
  exchange ACFDT corr.  =        -0.00000000  see jH, gK, PRB 81, 115126


--------------------------------------------------------------------------------------------------------




--------------------------------------- Iteration      1(  41)  ---------------------------------------


    POTLOK:  cpu time      0.8534: real time      0.8574
    SETDIJ:  cpu time      0.0029: real time      0.0029
    TRIAL :  cpu time      5.1595: real time      5.1965
    CORREC:  cpu time      0.0001: real time      0.0002
    CHARGE:  cpu time      0.1098: real time      0.1114
    --------------------------------------------
      LOOP:  cpu time      6.1260: real time      6.1688

 eigenvalue-minimisations  :     0
 total energy-change (2. order) :-0.8118887E-05  (-0.9474588E-05)
 number of electron      51.9999998 magnetization 
 augmentation part        2.2850398 magnetization 

 DIPCOR: dipole corrections for dipol
 direction  1 min pos     1, direction  2 min pos     1, direction  3 min pos     1,
 dipolmoment           0.134170      0.215255     -0.301867 electrons x Angstroem
 Tr[quadrupol]        30.263980

 energy correction for charged system         0.000000 eV
 dipol+quadrupol energy correction           -0.000586 eV
 added-field ion interaction         -0.003799 eV  (added to PSCEN)


 Free energy of the ion-electron system (eV)
  ---------------------------------------------------
  alpha Z        PSCENC =         1.41186951
  Ewald energy   TEWEN  =      4180.07565827
  -Hartree energ DENC   =     -5956.50514106
  -exchange      EXHF   =       118.09964969
  -V(xc)+E(xc)   XCENC  =       152.20518056
  PAW double counting   =      4064.65339931    -4075.37577243
  entropy T*S    EENTRO =        -0.00000000
  eigenvalues    EBANDS =      -752.67058889
  atomic energy  EATOM  =      2134.32377930
  ---------------------------------------------------
  free energy    TOTEN  =      -133.78196574 eV

  energy without entropy =     -133.78196574  energy(sigma->0) =     -133.78196574
  exchange ACFDT corr.  =        -0.00000000  see jH, gK, PRB 81, 115126


--------------------------------------------------------------------------------------------------------




--------------------------------------- Iteration      1(  42)  ---------------------------------------


    POTLOK:  cpu time      0.8537: real time      0.8568
    SETDIJ:  cpu time      0.0026: real time      0.0026
    TRIAL :  cpu time      5.1516: real time      5.1842
    CORREC:  cpu time      0.0003: real time      0.0003
    CHARGE:  cpu time      0.1104: real time      0.1113
    --------------------------------------------
      LOOP:  cpu time      6.1189: real time      6.1554

 eigenvalue-minimisations  :     0
 total energy-change (2. order) :-0.6455459E-05  (-0.8621827E-05)
 number of electron      51.9999998 magnetization 
 augmentation part        2.2850461 magnetization 

 DIPCOR: dipole corrections for dipol
 direction  1 min pos     1, direction  2 min pos     1, direction  3 min pos     1,
 dipolmoment           0.134207      0.215254     -0.301816 electrons x Angstroem
 Tr[quadrupol]        30.264095

 energy correction for charged system         0.000000 eV
 dipol+quadrupol energy correction           -0.000586 eV
 added-field ion interaction         -0.003797 eV  (added to PSCEN)


 Free energy of the ion-electron system (eV)
  ---------------------------------------------------
  alpha Z        PSCENC =         1.41187125
  Ewald energy   TEWEN  =      4180.07565827
  -Hartree energ DENC   =     -5956.50053779
  -exchange      EXHF   =       118.09955452
  -V(xc)+E(xc)   XCENC  =       152.20487728
  PAW double counting   =      4064.64874273    -4075.37109509
  entropy T*S    EENTRO =        -0.00000000
  eigenvalues    EBANDS =      -752.67482267
  atomic energy  EATOM  =      2134.32377930
  ---------------------------------------------------
  free energy    TOTEN  =      -133.78197219 eV

  energy without entropy =     -133.78197219  energy(sigma->0) =     -133.78197219
  exchange ACFDT corr.  =        -0.00000000  see jH, gK, PRB 81, 115126


--------------------------------------------------------------------------------------------------------




--------------------------------------- Iteration      1(  43)  ---------------------------------------


    POTLOK:  cpu time      0.8535: real time      0.8572
    SETDIJ:  cpu time      0.0027: real time      0.0027
    TRIAL :  cpu time      5.1453: real time      5.1781
    CORREC:  cpu time      0.0002: real time      0.0002
    CHARGE:  cpu time      0.1103: real time      0.1111
    --------------------------------------------
      LOOP:  cpu time      6.1229: real time      6.1623

 eigenvalue-minimisations  :     0
 total energy-change (2. order) :-0.6479823E-05  (-0.7709435E-05)
 number of electron      51.9999998 magnetization 
 augmentation part        2.2850412 magnetization 

 DIPCOR: dipole corrections for dipol
 direction  1 min pos     1, direction  2 min pos     1, direction  3 min pos     1,
 dipolmoment           0.134242      0.215202     -0.301808 electrons x Angstroem
 Tr[quadrupol]        30.263602

 energy correction for charged system         0.000000 eV
 dipol+quadrupol energy correction           -0.000586 eV
 added-field ion interaction         -0.003793 eV  (added to PSCEN)


 Free energy of the ion-electron system (eV)
  ---------------------------------------------------
  alpha Z        PSCENC =         1.41187580
  Ewald energy   TEWEN  =      4180.07565827
  -Hartree energ DENC   =     -5956.50723315
  -exchange      EXHF   =       118.09971558
  -V(xc)+E(xc)   XCENC  =       152.20518112
  PAW double counting   =      4064.65577064    -4075.37814391
  entropy T*S    EENTRO =        -0.00000000
  eigenvalues    EBANDS =      -752.66858232
  atomic energy  EATOM  =      2134.32377930
  ---------------------------------------------------
  free energy    TOTEN  =      -133.78197867 eV

  energy without entropy =     -133.78197867  energy(sigma->0) =     -133.78197867
  exchange ACFDT corr.  =        -0.00000000  see jH, gK, PRB 81, 115126


--------------------------------------------------------------------------------------------------------




--------------------------------------- Iteration      1(  44)  ---------------------------------------


    POTLOK:  cpu time      0.8539: real time      0.8574
    SETDIJ:  cpu time      0.0024: real time      0.0024
    TRIAL :  cpu time      5.1492: real time      5.1843
    CORREC:  cpu time      0.0003: real time      0.0003
    CHARGE:  cpu time      0.1102: real time      0.1110
    --------------------------------------------
      LOOP:  cpu time      6.1162: real time      6.1556

 eigenvalue-minimisations  :     0
 total energy-change (2. order) :-0.4191545E-05  (-0.7657365E-05)
 number of electron      51.9999998 magnetization 
 augmentation part        2.2850456 magnetization 

 DIPCOR: dipole corrections for dipol
 direction  1 min pos     1, direction  2 min pos     1, direction  3 min pos     1,
 dipolmoment           0.134284      0.215193     -0.301761 electrons x Angstroem
 Tr[quadrupol]        30.263778

 energy correction for charged system         0.000000 eV
 dipol+quadrupol energy correction           -0.000586 eV
 added-field ion interaction         -0.003790 eV  (added to PSCEN)


 Free energy of the ion-electron system (eV)
  ---------------------------------------------------
  alpha Z        PSCENC =         1.41187818
  Ewald energy   TEWEN  =      4180.07565827
  -Hartree energ DENC   =     -5956.50298489
  -exchange      EXHF   =       118.09963201
  -V(xc)+E(xc)   XCENC  =       152.20495117
  PAW double counting   =      4064.65147946    -4075.37383673
  entropy T*S    EENTRO =        -0.00000000
  eigenvalues    EBANDS =      -752.67253963
  atomic energy  EATOM  =      2134.32377930
  ---------------------------------------------------
  free energy    TOTEN  =      -133.78198286 eV

  energy without entropy =     -133.78198286  energy(sigma->0) =     -133.78198286
  exchange ACFDT corr.  =        -0.00000000  see jH, gK, PRB 81, 115126


--------------------------------------------------------------------------------------------------------




--------------------------------------- Iteration      1(  45)  ---------------------------------------


    POTLOK:  cpu time      0.8538: real time      0.8573
    SETDIJ:  cpu time      0.0024: real time      0.0024
    TRIAL :  cpu time      5.1499: real time      5.1819
    CORREC:  cpu time      0.0002: real time      0.0003
    CHARGE:  cpu time      0.1104: real time      0.1111
    --------------------------------------------
      LOOP:  cpu time      6.1170: real time      6.1534

 eigenvalue-minimisations  :     0
 total energy-change (2. order) :-0.5806943E-05  (-0.7071328E-05)
 number of electron      51.9999998 magnetization 
 augmentation part        2.2850423 magnetization 

 DIPCOR: dipole corrections for dipol
 direction  1 min pos     1, direction  2 min pos     1, direction  3 min pos     1,
 dipolmoment           0.134307      0.215147     -0.301749 electrons x Angstroem
 Tr[quadrupol]        30.263354

 energy correction for charged system         0.000000 eV
 dipol+quadrupol energy correction           -0.000586 eV
 added-field ion interaction         -0.003787 eV  (added to PSCEN)


 Free energy of the ion-electron system (eV)
  ---------------------------------------------------
  alpha Z        PSCENC =         1.41188193
  Ewald energy   TEWEN  =      4180.07565827
  -Hartree energ DENC   =     -5956.50818791
  -exchange      EXHF   =       118.09975398
  -V(xc)+E(xc)   XCENC  =       152.20518578
  PAW double counting   =      4064.65712680    -4075.37949912
  entropy T*S    EENTRO =        -0.00000000
  eigenvalues    EBANDS =      -752.66768770
  atomic energy  EATOM  =      2134.32377930
  ---------------------------------------------------
  free energy    TOTEN  =      -133.78198867 eV

  energy without entropy =     -133.78198867  energy(sigma->0) =     -133.78198867
  exchange ACFDT corr.  =        -0.00000000  see jH, gK, PRB 81, 115126


--------------------------------------------------------------------------------------------------------




--------------------------------------- Iteration      1(  46)  ---------------------------------------


    POTLOK:  cpu time      0.8539: real time      0.8572
    SETDIJ:  cpu time      0.0021: real time      0.0021
    TRIAL :  cpu time      5.1524: real time      5.1835
    CORREC:  cpu time      0.0001: real time      0.0001
    CHARGE:  cpu time      0.1102: real time      0.1111
    --------------------------------------------
      LOOP:  cpu time      6.1190: real time      6.1543

 eigenvalue-minimisations  :     0
 total energy-change (2. order) :-0.3546762E-05  (-0.6634123E-05)
 number of electron      51.9999998 magnetization 
 augmentation part        2.2850468 magnetization 

 DIPCOR: dipole corrections for dipol
 direction  1 min pos     1, direction  2 min pos     1, direction  3 min pos     1,
 dipolmoment           0.134346      0.215134     -0.301721 electrons x Angstroem
 Tr[quadrupol]        30.263479

 energy correction for charged system         0.000000 eV
 dipol+quadrupol energy correction           -0.000586 eV
 added-field ion interaction         -0.003784 eV  (added to PSCEN)


 Free energy of the ion-electron system (eV)
  ---------------------------------------------------
  alpha Z        PSCENC =         1.41188446
  Ewald energy   TEWEN  =      4180.07565827
  -Hartree energ DENC   =     -5956.50502071
  -exchange      EXHF   =       118.09969562
  -V(xc)+E(xc)   XCENC  =       152.20497039
  PAW double counting   =      4064.65407762    -4075.37643969
  entropy T*S    EENTRO =        -0.00000000
  eigenvalues    EBANDS =      -752.67059749
  atomic energy  EATOM  =      2134.32377930
  ---------------------------------------------------
  free energy    TOTEN  =      -133.78199222 eV

  energy without entropy =     -133.78199222  energy(sigma->0) =     -133.78199222
  exchange ACFDT corr.  =        -0.00000000  see jH, gK, PRB 81, 115126


--------------------------------------------------------------------------------------------------------




--------------------------------------- Iteration      1(  47)  ---------------------------------------


    POTLOK:  cpu time      0.8535: real time      0.8567
    SETDIJ:  cpu time      0.0022: real time      0.0022
    TRIAL :  cpu time      5.1350: real time      5.1647
    CORREC:  cpu time      0.0002: real time      0.0002
    CHARGE:  cpu time      0.1106: real time      0.1115
    --------------------------------------------
      LOOP:  cpu time      6.1018: real time      6.1355

 eigenvalue-minimisations  :     0
 total energy-change (2. order) :-0.3810073E-05  (-0.5586159E-05)
 number of electron      51.9999998 magnetization 
 augmentation part        2.2850405 magnetization 

 DIPCOR: dipole corrections for dipol
 direction  1 min pos     1, direction  2 min pos     1, direction  3 min pos     1,
 dipolmoment           0.134362      0.215104     -0.301705 electrons x Angstroem
 Tr[quadrupol]        30.263002

 energy correction for charged system         0.000000 eV
 dipol+quadrupol energy correction           -0.000586 eV
 added-field ion interaction         -0.003782 eV  (added to PSCEN)


 Free energy of the ion-electron system (eV)
  ---------------------------------------------------
  alpha Z        PSCENC =         1.41188687
  Ewald energy   TEWEN  =      4180.07565827
  -Hartree energ DENC   =     -5956.51066124
  -exchange      EXHF   =       118.09982473
  -V(xc)+E(xc)   XCENC  =       152.20524214
  PAW double counting   =      4064.65963568    -4075.38201253
  entropy T*S    EENTRO =        -0.00000000
  eigenvalues    EBANDS =      -752.66534924
  atomic energy  EATOM  =      2134.32377930
  ---------------------------------------------------
  free energy    TOTEN  =      -133.78199603 eV

  energy without entropy =     -133.78199603  energy(sigma->0) =     -133.78199603
  exchange ACFDT corr.  =        -0.00000000  see jH, gK, PRB 81, 115126


--------------------------------------------------------------------------------------------------------




--------------------------------------- Iteration      1(  48)  ---------------------------------------


    POTLOK:  cpu time      0.8534: real time      0.8569
    SETDIJ:  cpu time      0.0026: real time      0.0026
    TRIAL :  cpu time      5.1582: real time      5.1899
    CORREC:  cpu time      0.0002: real time      0.0002
    CHARGE:  cpu time      0.1101: real time      0.1112
    --------------------------------------------
      LOOP:  cpu time      6.1246: real time      6.1610

 eigenvalue-minimisations  :     0
 total energy-change (2. order) :-0.3297273E-05  (-0.5294377E-05)
 number of electron      51.9999998 magnetization 
 augmentation part        2.2850481 magnetization 

 DIPCOR: dipole corrections for dipol
 direction  1 min pos     1, direction  2 min pos     1, direction  3 min pos     1,
 dipolmoment           0.134403      0.215078     -0.301667 electrons x Angstroem
 Tr[quadrupol]        30.263337

 energy correction for charged system         0.000000 eV
 dipol+quadrupol energy correction           -0.000586 eV
 added-field ion interaction         -0.003778 eV  (added to PSCEN)


 Free energy of the ion-electron system (eV)
  ---------------------------------------------------
  alpha Z        PSCENC =         1.41189026
  Ewald energy   TEWEN  =      4180.07565827
  -Hartree energ DENC   =     -5956.50516014
  -exchange      EXHF   =       118.09971221
  -V(xc)+E(xc)   XCENC  =       152.20492504
  PAW double counting   =      4064.65454901    -4075.37690498
  entropy T*S    EENTRO =        -0.00000000
  eigenvalues    EBANDS =      -752.67044828
  atomic energy  EATOM  =      2134.32377930
  ---------------------------------------------------
  free energy    TOTEN  =      -133.78199932 eV

  energy without entropy =     -133.78199932  energy(sigma->0) =     -133.78199932
  exchange ACFDT corr.  =        -0.00000000  see jH, gK, PRB 81, 115126


--------------------------------------------------------------------------------------------------------




--------------------------------------- Iteration      1(  49)  ---------------------------------------


    POTLOK:  cpu time      0.8531: real time      0.8563
    SETDIJ:  cpu time      0.0027: real time      0.0027
    TRIAL :  cpu time      5.1447: real time      5.1759
    CORREC:  cpu time      0.0002: real time      0.0002
    CHARGE:  cpu time      0.1102: real time      0.1110
    --------------------------------------------
      LOOP:  cpu time      6.1111: real time      6.1463

 eigenvalue-minimisations  :     0
 total energy-change (2. order) :-0.3719540E-05  (-0.4901576E-05)
 number of electron      51.9999998 magnetization 
 augmentation part        2.2850406 magnetization 

 DIPCOR: dipole corrections for dipol
 direction  1 min pos     1, direction  2 min pos     1, direction  3 min pos     1,
 dipolmoment           0.134410      0.215064     -0.301673 electrons x Angstroem
 Tr[quadrupol]        30.262706

 energy correction for charged system         0.000000 eV
 dipol+quadrupol energy correction           -0.000586 eV
 added-field ion interaction         -0.003777 eV  (added to PSCEN)


 Free energy of the ion-electron system (eV)
  ---------------------------------------------------
  alpha Z        PSCENC =         1.41189127
  Ewald energy   TEWEN  =      4180.07565827
  -Hartree energ DENC   =     -5956.51292623
  -exchange      EXHF   =       118.09988670
  -V(xc)+E(xc)   XCENC  =       152.20532508
  PAW double counting   =      4064.66212974    -4075.38451160
  entropy T*S    EENTRO =        -0.00000000
  eigenvalues    EBANDS =      -752.66323557
  atomic energy  EATOM  =      2134.32377930
  ---------------------------------------------------
  free energy    TOTEN  =      -133.78200304 eV

  energy without entropy =     -133.78200304  energy(sigma->0) =     -133.78200304
  exchange ACFDT corr.  =        -0.00000000  see jH, gK, PRB 81, 115126


--------------------------------------------------------------------------------------------------------




--------------------------------------- Iteration      1(  50)  ---------------------------------------


    POTLOK:  cpu time      0.8537: real time      0.8578
    SETDIJ:  cpu time      0.0023: real time      0.0023
    TRIAL :  cpu time      5.1328: real time      5.1673
    CORREC:  cpu time      0.0001: real time      0.0001
    CHARGE:  cpu time      0.1107: real time      0.1116
    --------------------------------------------
      LOOP:  cpu time      6.0997: real time      6.1393

 eigenvalue-minimisations  :     0
 total energy-change (2. order) :-0.1282773E-05  (-0.4834367E-05)
 number of electron      51.9999998 magnetization 
 augmentation part        2.2850487 magnetization 

 DIPCOR: dipole corrections for dipol
 direction  1 min pos     1, direction  2 min pos     1, direction  3 min pos     1,
 dipolmoment           0.134454      0.215025     -0.301633 electrons x Angstroem
 Tr[quadrupol]        30.263205

 energy correction for charged system         0.000000 eV
 dipol+quadrupol energy correction           -0.000585 eV
 added-field ion interaction         -0.003773 eV  (added to PSCEN)


 Free energy of the ion-electron system (eV)
  ---------------------------------------------------
  alpha Z        PSCENC =         1.41189550
  Ewald energy   TEWEN  =      4180.07565827
  -Hartree energ DENC   =     -5956.50550333
  -exchange      EXHF   =       118.09973543
  -V(xc)+E(xc)   XCENC  =       152.20486420
  PAW double counting   =      4064.65528762    -4075.37764452
  entropy T*S    EENTRO =        -0.00000000
  eigenvalues    EBANDS =      -752.67007680
  atomic energy  EATOM  =      2134.32377930
  ---------------------------------------------------
  free energy    TOTEN  =      -133.78200433 eV

  energy without entropy =     -133.78200433  energy(sigma->0) =     -133.78200433
  exchange ACFDT corr.  =        -0.00000000  see jH, gK, PRB 81, 115126


--------------------------------------------------------------------------------------------------------




--------------------------------------- Iteration      1(  51)  ---------------------------------------


    POTLOK:  cpu time      0.8537: real time      0.8575
    SETDIJ:  cpu time      0.0022: real time      0.0022
    TRIAL :  cpu time      5.1644: real time      5.2011
    CORREC:  cpu time      0.0002: real time      0.0002
    CHARGE:  cpu time      0.1102: real time      0.1112
    --------------------------------------------
      LOOP:  cpu time      6.1308: real time      6.1723

 eigenvalue-minimisations  :     0
 total energy-change (2. order) :-0.3588440E-05  (-0.4318299E-05)
 number of electron      51.9999998 magnetization 
 augmentation part        2.2850413 magnetization 

 DIPCOR: dipole corrections for dipol
 direction  1 min pos     1, direction  2 min pos     1, direction  3 min pos     1,
 dipolmoment           0.134464      0.215025     -0.301632 electrons x Angstroem
 Tr[quadrupol]        30.262426

 energy correction for charged system         0.000000 eV
 dipol+quadrupol energy correction           -0.000585 eV
 added-field ion interaction         -0.003773 eV  (added to PSCEN)


 Free energy of the ion-electron system (eV)
  ---------------------------------------------------
  alpha Z        PSCENC =         1.41189603
  Ewald energy   TEWEN  =      4180.07565827
  -Hartree energ DENC   =     -5956.51512461
  -exchange      EXHF   =       118.09994532
  -V(xc)+E(xc)   XCENC  =       152.20538549
  PAW double counting   =      4064.66428778    -4075.38667231
  entropy T*S    EENTRO =        -0.00000000
  eigenvalues    EBANDS =      -752.66116320
  atomic energy  EATOM  =      2134.32377930
  ---------------------------------------------------
  free energy    TOTEN  =      -133.78200791 eV

  energy without entropy =     -133.78200791  energy(sigma->0) =     -133.78200791
  exchange ACFDT corr.  =        -0.00000000  see jH, gK, PRB 81, 115126


--------------------------------------------------------------------------------------------------------




--------------------------------------- Iteration      1(  52)  ---------------------------------------


    POTLOK:  cpu time      0.8539: real time      0.8575
    SETDIJ:  cpu time      0.0022: real time      0.0022
    TRIAL :  cpu time      5.1535: real time      5.1887
    CORREC:  cpu time      0.0002: real time      0.0002
    CHARGE:  cpu time      0.1103: real time      0.1113
    --------------------------------------------
      LOOP:  cpu time      6.1204: real time      6.1602

 eigenvalue-minimisations  :     0
 total energy-change (2. order) :-0.1418241E-05  (-0.4141504E-05)
 number of electron      51.9999998 magnetization 
 augmentation part        2.2850487 magnetization 

 DIPCOR: dipole corrections for dipol
 direction  1 min pos     1, direction  2 min pos     1, direction  3 min pos     1,
 dipolmoment           0.134492      0.214992     -0.301601 electrons x Angstroem
 Tr[quadrupol]        30.263005

 energy correction for charged system         0.000000 eV
 dipol+quadrupol energy correction           -0.000585 eV
 added-field ion interaction         -0.003770 eV  (added to PSCEN)


 Free energy of the ion-electron system (eV)
  ---------------------------------------------------
  alpha Z        PSCENC =         1.41189920
  Ewald energy   TEWEN  =      4180.07565827
  -Hartree energ DENC   =     -5956.50668058
  -exchange      EXHF   =       118.09977474
  -V(xc)+E(xc)   XCENC  =       152.20488432
  PAW double counting   =      4064.65670522    -4075.37906459
  entropy T*S    EENTRO =        -0.00000000
  eigenvalues    EBANDS =      -752.66896522
  atomic energy  EATOM  =      2134.32377930
  ---------------------------------------------------
  free energy    TOTEN  =      -133.78200933 eV

  energy without entropy =     -133.78200933  energy(sigma->0) =     -133.78200933
  exchange ACFDT corr.  =        -0.00000000  see jH, gK, PRB 81, 115126


--------------------------------------------------------------------------------------------------------




--------------------------------------- Iteration      1(  53)  ---------------------------------------


    POTLOK:  cpu time      0.8547: real time      0.8585
    SETDIJ:  cpu time      0.0022: real time      0.0022
    TRIAL :  cpu time      5.1512: real time      5.1872
    CORREC:  cpu time      0.0002: real time      0.0002
    CHARGE:  cpu time      0.1101: real time      0.1111
    --------------------------------------------
      LOOP:  cpu time      6.1190: real time      6.1619

 eigenvalue-minimisations  :     0
 total energy-change (2. order) :-0.3061531E-05  (-0.3700846E-05)
 number of electron      51.9999998 magnetization 
 augmentation part        2.2850417 magnetization 

 DIPCOR: dipole corrections for dipol
 direction  1 min pos     1, direction  2 min pos     1, direction  3 min pos     1,
 dipolmoment           0.134509      0.214969     -0.301597 electrons x Angstroem
 Tr[quadrupol]        30.262291

 energy correction for charged system         0.000000 eV
 dipol+quadrupol energy correction           -0.000585 eV
 added-field ion interaction         -0.003768 eV  (added to PSCEN)


 Free energy of the ion-electron system (eV)
  ---------------------------------------------------
  alpha Z        PSCENC =         1.41190115
  Ewald energy   TEWEN  =      4180.07565827
  -Hartree energ DENC   =     -5956.51557724
  -exchange      EXHF   =       118.09996831
  -V(xc)+E(xc)   XCENC  =       152.20540781
  PAW double counting   =      4064.66521401    -4075.38759904
  entropy T*S    EENTRO =        -0.00000000
  eigenvalues    EBANDS =      -752.66076495
  atomic energy  EATOM  =      2134.32377930
  ---------------------------------------------------
  free energy    TOTEN  =      -133.78201239 eV

  energy without entropy =     -133.78201239  energy(sigma->0) =     -133.78201239
  exchange ACFDT corr.  =        -0.00000000  see jH, gK, PRB 81, 115126


--------------------------------------------------------------------------------------------------------




--------------------------------------- Iteration      1(  54)  ---------------------------------------


    POTLOK:  cpu time      0.8537: real time      0.8580
    SETDIJ:  cpu time      0.0027: real time      0.0027
    TRIAL :  cpu time      5.1360: real time      5.1724
    CORREC:  cpu time      0.0003: real time      0.0003
    CHARGE:  cpu time      0.1096: real time      0.1112
    --------------------------------------------
      LOOP:  cpu time      6.1026: real time      6.1448

 eigenvalue-minimisations  :     0
 total energy-change (2. order) :-0.1437935E-05  (-0.3504608E-05)
 number of electron      51.9999998 magnetization 
 augmentation part        2.2850489 magnetization 

 DIPCOR: dipole corrections for dipol
 direction  1 min pos     1, direction  2 min pos     1, direction  3 min pos     1,
 dipolmoment           0.134526      0.214970     -0.301569 electrons x Angstroem
 Tr[quadrupol]        30.262808

 energy correction for charged system         0.000000 eV
 dipol+quadrupol energy correction           -0.000585 eV
 added-field ion interaction         -0.003767 eV  (added to PSCEN)


 Free energy of the ion-electron system (eV)
  ---------------------------------------------------
  alpha Z        PSCENC =         1.41190195
  Ewald energy   TEWEN  =      4180.07565827
  -Hartree energ DENC   =     -5956.50796927
  -exchange      EXHF   =       118.09981112
  -V(xc)+E(xc)   XCENC  =       152.20488118
  PAW double counting   =      4064.65790185    -4075.38026383
  entropy T*S    EENTRO =        -0.00000000
  eigenvalues    EBANDS =      -752.66771439
  atomic energy  EATOM  =      2134.32377930
  ---------------------------------------------------
  free energy    TOTEN  =      -133.78201383 eV

  energy without entropy =     -133.78201383  energy(sigma->0) =     -133.78201383
  exchange ACFDT corr.  =        -0.00000000  see jH, gK, PRB 81, 115126


--------------------------------------------------------------------------------------------------------




--------------------------------------- Iteration      1(  55)  ---------------------------------------


    POTLOK:  cpu time      0.8530: real time      0.8565
    SETDIJ:  cpu time      0.0025: real time      0.0025
    TRIAL :  cpu time      5.1426: real time      5.1789
    CORREC:  cpu time      0.0001: real time      0.0001
    CHARGE:  cpu time      0.1101: real time      0.1111
    --------------------------------------------
      LOOP:  cpu time      6.1087: real time      6.1495

 eigenvalue-minimisations  :     0
 total energy-change (2. order) :-0.1579423E-05  (-0.3062006E-05)
 number of electron      51.9999998 magnetization 
 augmentation part        2.2850429 magnetization 

 DIPCOR: dipole corrections for dipol
 direction  1 min pos     1, direction  2 min pos     1, direction  3 min pos     1,
 dipolmoment           0.134548      0.214927     -0.301565 electrons x Angstroem
 Tr[quadrupol]        30.262140

 energy correction for charged system         0.000000 eV
 dipol+quadrupol energy correction           -0.000585 eV
 added-field ion interaction         -0.003764 eV  (added to PSCEN)


 Free energy of the ion-electron system (eV)
  ---------------------------------------------------
  alpha Z        PSCENC =         1.41190521
  Ewald energy   TEWEN  =      4180.07565827
  -Hartree energ DENC   =     -5956.51643002
  -exchange      EXHF   =       118.09999874
  -V(xc)+E(xc)   XCENC  =       152.20541810
  PAW double counting   =      4064.66636025    -4075.38874593
  entropy T*S    EENTRO =        -0.00000000
  eigenvalues    EBANDS =      -752.65995934
  atomic energy  EATOM  =      2134.32377930
  ---------------------------------------------------
  free energy    TOTEN  =      -133.78201541 eV

  energy without entropy =     -133.78201541  energy(sigma->0) =     -133.78201541
  exchange ACFDT corr.  =        -0.00000000  see jH, gK, PRB 81, 115126


--------------------------------------------------------------------------------------------------------




--------------------------------------- Iteration      1(  56)  ---------------------------------------


    POTLOK:  cpu time      0.8532: real time      0.8574
    SETDIJ:  cpu time      0.0026: real time      0.0026
    TRIAL :  cpu time      5.1492: real time      5.1852
    CORREC:  cpu time      0.0001: real time      0.0001
    CHARGE:  cpu time      0.1102: real time      0.1110
    --------------------------------------------
      LOOP:  cpu time      6.1156: real time      6.1566

 eigenvalue-minimisations  :     0
 total energy-change (2. order) :-0.1396345E-05  (-0.2879936E-05)
 number of electron      51.9999998 magnetization 
 augmentation part        2.2850489 magnetization 

 DIPCOR: dipole corrections for dipol
 direction  1 min pos     1, direction  2 min pos     1, direction  3 min pos     1,
 dipolmoment           0.134558      0.214935     -0.301552 electrons x Angstroem
 Tr[quadrupol]        30.262581

 energy correction for charged system         0.000000 eV
 dipol+quadrupol energy correction           -0.000585 eV
 added-field ion interaction         -0.003764 eV  (added to PSCEN)


 Free energy of the ion-electron system (eV)
  ---------------------------------------------------
  alpha Z        PSCENC =         1.41190531
  Ewald energy   TEWEN  =      4180.07565827
  -Hartree energ DENC   =     -5956.50962791
  -exchange      EXHF   =       118.09985397
  -V(xc)+E(xc)   XCENC  =       152.20490199
  PAW double counting   =      4064.65972965    -4075.38209600
  entropy T*S    EENTRO =        -0.00000000
  eigenvalues    EBANDS =      -752.66612139
  atomic energy  EATOM  =      2134.32377930
  ---------------------------------------------------
  free energy    TOTEN  =      -133.78201681 eV

  energy without entropy =     -133.78201681  energy(sigma->0) =     -133.78201681
  exchange ACFDT corr.  =        -0.00000000  see jH, gK, PRB 81, 115126


--------------------------------------------------------------------------------------------------------




--------------------------------------- Iteration      1(  57)  ---------------------------------------


    POTLOK:  cpu time      0.8544: real time      0.8580
    SETDIJ:  cpu time      0.0023: real time      0.0023
    TRIAL :  cpu time      5.1253: real time      5.1565
    CORREC:  cpu time      0.0001: real time      0.0001
    CHARGE:  cpu time      0.1107: real time      0.1116
    --------------------------------------------
      LOOP:  cpu time      6.0931: real time      6.1287

 eigenvalue-minimisations  :     0
 total energy-change (2. order) :-0.2599681E-05  (-0.2462904E-05)
 number of electron      51.9999998 magnetization 
 augmentation part        2.2850436 magnetization 

 DIPCOR: dipole corrections for dipol
 direction  1 min pos     1, direction  2 min pos     1, direction  3 min pos     1,
 dipolmoment           0.134581      0.214905     -0.301530 electrons x Angstroem
 Tr[quadrupol]        30.262038

 energy correction for charged system         0.000000 eV
 dipol+quadrupol energy correction           -0.000585 eV
 added-field ion interaction         -0.003761 eV  (added to PSCEN)


 Free energy of the ion-electron system (eV)
  ---------------------------------------------------
  alpha Z        PSCENC =         1.41190811
  Ewald energy   TEWEN  =      4180.07565827
  -Hartree energ DENC   =     -5956.51690052
  -exchange      EXHF   =       118.10001920
  -V(xc)+E(xc)   XCENC  =       152.20539184
  PAW double counting   =      4064.66700851    -4075.38939446
  entropy T*S    EENTRO =        -0.00000000
  eigenvalues    EBANDS =      -752.65948966
  atomic energy  EATOM  =      2134.32377930
  ---------------------------------------------------
  free energy    TOTEN  =      -133.78201941 eV

  energy without entropy =     -133.78201941  energy(sigma->0) =     -133.78201941
  exchange ACFDT corr.  =        -0.00000000  see jH, gK, PRB 81, 115126


--------------------------------------------------------------------------------------------------------




--------------------------------------- Iteration      1(  58)  ---------------------------------------


    POTLOK:  cpu time      0.8541: real time      0.8575
    SETDIJ:  cpu time      0.0023: real time      0.0023
    TRIAL :  cpu time      5.1618: real time      5.1928
    CORREC:  cpu time      0.0001: real time      0.0001
    CHARGE:  cpu time      0.1103: real time      0.1112
    --------------------------------------------
      LOOP:  cpu time      6.1287: real time      6.1641

 eigenvalue-minimisations  :     0
 total energy-change (2. order) :-0.4712624E-06  (-0.2454667E-05)
 number of electron      51.9999998 magnetization 
 augmentation part        2.2850493 magnetization 

 DIPCOR: dipole corrections for dipol
 direction  1 min pos     1, direction  2 min pos     1, direction  3 min pos     1,
 dipolmoment           0.134593      0.214895     -0.301529 electrons x Angstroem
 Tr[quadrupol]        30.262378

 energy correction for charged system         0.000000 eV
 dipol+quadrupol energy correction           -0.000585 eV
 added-field ion interaction         -0.003760 eV  (added to PSCEN)


 Free energy of the ion-electron system (eV)
  ---------------------------------------------------
  alpha Z        PSCENC =         1.41190930
  Ewald energy   TEWEN  =      4180.07565827
  -Hartree energ DENC   =     -5956.51117519
  -exchange      EXHF   =       118.09989468
  -V(xc)+E(xc)   XCENC  =       152.20497398
  PAW double counting   =      4064.66153011    -4075.38389887
  entropy T*S    EENTRO =        -0.00000000
  eigenvalues    EBANDS =      -752.66469146
  atomic energy  EATOM  =      2134.32377930
  ---------------------------------------------------
  free energy    TOTEN  =      -133.78201988 eV

  energy without entropy =     -133.78201988  energy(sigma->0) =     -133.78201988
  exchange ACFDT corr.  =        -0.00000000  see jH, gK, PRB 81, 115126


--------------------------------------------------------------------------------------------------------




--------------------------------------- Iteration      1(  59)  ---------------------------------------


    POTLOK:  cpu time      0.8543: real time      0.8575
    SETDIJ:  cpu time      0.0022: real time      0.0022
    TRIAL :  cpu time      5.1616: real time      5.1960
    CORREC:  cpu time      0.0001: real time      0.0001
    CHARGE:  cpu time      0.1104: real time      0.1112
    --------------------------------------------
      LOOP:  cpu time      6.1288: real time      6.1672

 eigenvalue-minimisations  :     0
 total energy-change (2. order) :-0.1167348E-05  (-0.2343907E-05)
 number of electron      51.9999998 magnetization 
 augmentation part        2.2850438 magnetization 

 DIPCOR: dipole corrections for dipol
 direction  1 min pos     1, direction  2 min pos     1, direction  3 min pos     1,
 dipolmoment           0.134601      0.214878     -0.301516 electrons x Angstroem
 Tr[quadrupol]        30.261955

 energy correction for charged system         0.000000 eV
 dipol+quadrupol energy correction           -0.000585 eV
 added-field ion interaction         -0.003759 eV  (added to PSCEN)


 Free energy of the ion-electron system (eV)
  ---------------------------------------------------
  alpha Z        PSCENC =         1.41191050
  Ewald energy   TEWEN  =      4180.07565827
  -Hartree energ DENC   =     -5956.51708479
  -exchange      EXHF   =       118.10003203
  -V(xc)+E(xc)   XCENC  =       152.20536641
  PAW double counting   =      4064.66744940    -4075.38983732
  entropy T*S    EENTRO =        -0.00000000
  eigenvalues    EBANDS =      -752.65929485
  atomic energy  EATOM  =      2134.32377930
  ---------------------------------------------------
  free energy    TOTEN  =      -133.78202105 eV

  energy without entropy =     -133.78202105  energy(sigma->0) =     -133.78202105
  exchange ACFDT corr.  =        -0.00000000  see jH, gK, PRB 81, 115126


--------------------------------------------------------------------------------------------------------




--------------------------------------- Iteration      1(  60)  ---------------------------------------


    POTLOK:  cpu time      0.8544: real time      0.8576
    SETDIJ:  cpu time      0.0021: real time      0.0021
    TRIAL :  cpu time      5.1568: real time      5.1869
    CORREC:  cpu time      0.0002: real time      0.0002
    CHARGE:  cpu time      0.1105: real time      0.1113
    --------------------------------------------
      LOOP:  cpu time      6.1241: real time      6.1582

 eigenvalue-minimisations  :     0
 total energy-change (2. order) : 0.9413134E-07  (-0.2437515E-05)
 number of electron      51.9999998 magnetization 
 augmentation part        2.2850497 magnetization 

 DIPCOR: dipole corrections for dipol
 direction  1 min pos     1, direction  2 min pos     1, direction  3 min pos     1,
 dipolmoment           0.134630      0.214873     -0.301512 electrons x Angstroem
 Tr[quadrupol]        30.262296

 energy correction for charged system         0.000000 eV
 dipol+quadrupol energy correction           -0.000585 eV
 added-field ion interaction         -0.003757 eV  (added to PSCEN)


 Free energy of the ion-electron system (eV)
  ---------------------------------------------------
  alpha Z        PSCENC =         1.41191222
  Ewald energy   TEWEN  =      4180.07565827
  -Hartree energ DENC   =     -5956.51187507
  -exchange      EXHF   =       118.09991922
  -V(xc)+E(xc)   XCENC  =       152.20498802
  PAW double counting   =      4064.66258988    -4075.38495954
  entropy T*S    EENTRO =        -0.00000000
  eigenvalues    EBANDS =      -752.66403326
  atomic energy  EATOM  =      2134.32377930
  ---------------------------------------------------
  free energy    TOTEN  =      -133.78202095 eV

  energy without entropy =     -133.78202095  energy(sigma->0) =     -133.78202095
  exchange ACFDT corr.  =        -0.00000000  see jH, gK, PRB 81, 115126


--------------------------------------------------------------------------------------------------------




--------------------------------------- Iteration      1(  61)  ---------------------------------------


    POTLOK:  cpu time      0.8525: real time      0.8565
    SETDIJ:  cpu time      0.0029: real time      0.0029
    TRIAL :  cpu time      5.1587: real time      5.1903
    CORREC:  cpu time      0.0001: real time      0.0001
    CHARGE:  cpu time      0.1103: real time      0.1111
    --------------------------------------------
      LOOP:  cpu time      6.1248: real time      6.1612

 eigenvalue-minimisations  :     0
 total energy-change (2. order) :-0.2041792E-05  (-0.2293053E-05)
 number of electron      51.9999998 magnetization 
 augmentation part        2.2850438 magnetization 

 DIPCOR: dipole corrections for dipol
 direction  1 min pos     1, direction  2 min pos     1, direction  3 min pos     1,
 dipolmoment           0.134618      0.214849     -0.301490 electrons x Angstroem
 Tr[quadrupol]        30.261814

 energy correction for charged system         0.000000 eV
 dipol+quadrupol energy correction           -0.000585 eV
 added-field ion interaction         -0.003756 eV  (added to PSCEN)


 Free energy of the ion-electron system (eV)
  ---------------------------------------------------
  alpha Z        PSCENC =         1.41191278
  Ewald energy   TEWEN  =      4180.07565827
  -Hartree energ DENC   =     -5956.51793289
  -exchange      EXHF   =       118.10005586
  -V(xc)+E(xc)   XCENC  =       152.20540774
  PAW double counting   =      4064.66856651    -4075.39095633
  entropy T*S    EENTRO =        -0.00000000
  eigenvalues    EBANDS =      -752.65851424
  atomic energy  EATOM  =      2134.32377930
  ---------------------------------------------------
  free energy    TOTEN  =      -133.78202299 eV

  energy without entropy =     -133.78202299  energy(sigma->0) =     -133.78202299
  exchange ACFDT corr.  =        -0.00000000  see jH, gK, PRB 81, 115126


--------------------------------------------------------------------------------------------------------




--------------------------------------- Iteration      1(  62)  ---------------------------------------


    POTLOK:  cpu time      0.8538: real time      0.8566
    SETDIJ:  cpu time      0.0026: real time      0.0026
    TRIAL :  cpu time      5.1538: real time      5.1869
    CORREC:  cpu time      0.0001: real time      0.0001
    CHARGE:  cpu time      0.1103: real time      0.1112
    --------------------------------------------
      LOOP:  cpu time      6.1209: real time      6.1577

 eigenvalue-minimisations  :     0
 total energy-change (2. order) :-0.4150093E-06  (-0.2216419E-05)
 number of electron      51.9999998 magnetization 
 augmentation part        2.2850495 magnetization 

 DIPCOR: dipole corrections for dipol
 direction  1 min pos     1, direction  2 min pos     1, direction  3 min pos     1,
 dipolmoment           0.134665      0.214852     -0.301496 electrons x Angstroem
 Tr[quadrupol]        30.262290

 energy correction for charged system         0.000000 eV
 dipol+quadrupol energy correction           -0.000585 eV
 added-field ion interaction         -0.003754 eV  (added to PSCEN)


 Free energy of the ion-electron system (eV)
  ---------------------------------------------------
  alpha Z        PSCENC =         1.41191487
  Ewald energy   TEWEN  =      4180.07565827
  -Hartree energ DENC   =     -5956.51170332
  -exchange      EXHF   =       118.09992369
  -V(xc)+E(xc)   XCENC  =       152.20497503
  PAW double counting   =      4064.66276172    -4075.38513180
  entropy T*S    EENTRO =        -0.00000000
  eigenvalues    EBANDS =      -752.66420117
  atomic energy  EATOM  =      2134.32377930
  ---------------------------------------------------
  free energy    TOTEN  =      -133.78202341 eV

  energy without entropy =     -133.78202341  energy(sigma->0) =     -133.78202341
  exchange ACFDT corr.  =        -0.00000000  see jH, gK, PRB 81, 115126


--------------------------------------------------------------------------------------------------------




--------------------------------------- Iteration      1(  63)  ---------------------------------------


    POTLOK:  cpu time      0.8535: real time      0.8577
    SETDIJ:  cpu time      0.0022: real time      0.0023
    TRIAL :  cpu time      5.1586: real time      5.1881
    CORREC:  cpu time      0.0001: real time      0.0001
    CHARGE:  cpu time      0.1102: real time      0.1111
    --------------------------------------------
      LOOP:  cpu time      6.1356: real time      6.1722

 eigenvalue-minimisations  :     0
 total energy-change (2. order) :-0.1263546E-05  (-0.1986465E-05)
 number of electron      51.9999998 magnetization 
 augmentation part        2.2850456 magnetization 

 DIPCOR: dipole corrections for dipol
 direction  1 min pos     1, direction  2 min pos     1, direction  3 min pos     1,
 dipolmoment           0.134642      0.214836     -0.301474 electrons x Angstroem
 Tr[quadrupol]        30.261739

 energy correction for charged system         0.000000 eV
 dipol+quadrupol energy correction           -0.000585 eV
 added-field ion interaction         -0.003755 eV  (added to PSCEN)


 Free energy of the ion-electron system (eV)
  ---------------------------------------------------
  alpha Z        PSCENC =         1.41191477
  Ewald energy   TEWEN  =      4180.07565827
  -Hartree energ DENC   =     -5956.51825103
  -exchange      EXHF   =       118.10006831
  -V(xc)+E(xc)   XCENC  =       152.20538701
  PAW double counting   =      4064.66908333    -4075.39147293
  entropy T*S    EENTRO =        -0.00000000
  eigenvalues    EBANDS =      -752.65819170
  atomic energy  EATOM  =      2134.32377930
  ---------------------------------------------------
  free energy    TOTEN  =      -133.78202467 eV

  energy without entropy =     -133.78202467  energy(sigma->0) =     -133.78202467
  exchange ACFDT corr.  =        -0.00000000  see jH, gK, PRB 81, 115126


--------------------------------------------------------------------------------------------------------




--------------------------------------- Iteration      1(  64)  ---------------------------------------


    POTLOK:  cpu time      0.8537: real time      0.8570
    SETDIJ:  cpu time      0.0026: real time      0.0026
    TRIAL :  cpu time      5.1613: real time      5.1921
    CORREC:  cpu time      0.0002: real time      0.0002
    CHARGE:  cpu time      0.1104: real time      0.1113
    --------------------------------------------
      LOOP:  cpu time      6.1285: real time      6.1634

 eigenvalue-minimisations  :     0
 total energy-change (2. order) :-0.1322228E-06  (-0.2070818E-05)
 number of electron      51.9999998 magnetization 
 augmentation part        2.2850486 magnetization 

 DIPCOR: dipole corrections for dipol
 direction  1 min pos     1, direction  2 min pos     1, direction  3 min pos     1,
 dipolmoment           0.134679      0.214831     -0.301486 electrons x Angstroem
 Tr[quadrupol]        30.262100

 energy correction for charged system         0.000000 eV
 dipol+quadrupol energy correction           -0.000585 eV
 added-field ion interaction         -0.003752 eV  (added to PSCEN)


 Free energy of the ion-electron system (eV)
  ---------------------------------------------------
  alpha Z        PSCENC =         1.41191679
  Ewald energy   TEWEN  =      4180.07565827
  -Hartree energ DENC   =     -5956.51345981
  -exchange      EXHF   =       118.09996885
  -V(xc)+E(xc)   XCENC  =       152.20504264
  PAW double counting   =      4064.66481129    -4075.38718753
  entropy T*S    EENTRO =        -0.00000000
  eigenvalues    EBANDS =      -752.66255462
  atomic energy  EATOM  =      2134.32377930
  ---------------------------------------------------
  free energy    TOTEN  =      -133.78202480 eV

  energy without entropy =     -133.78202480  energy(sigma->0) =     -133.78202480
  exchange ACFDT corr.  =        -0.00000000  see jH, gK, PRB 81, 115126


--------------------------------------------------------------------------------------------------------




--------------------------------------- Iteration      1(  65)  ---------------------------------------


    POTLOK:  cpu time      0.8541: real time      0.8573
    SETDIJ:  cpu time      0.0023: real time      0.0023
    TRIAL :  cpu time      5.1445: real time      5.1748
    CORREC:  cpu time      0.0001: real time      0.0001
    CHARGE:  cpu time      0.1102: real time      0.1111
    --------------------------------------------
      LOOP:  cpu time      6.1114: real time      6.1457

 eigenvalue-minimisations  :     0
 total energy-change (2. order) :-0.8425718E-06  (-0.2014818E-05)
 number of electron      51.9999998 magnetization 
 augmentation part        2.2850463 magnetization 

 DIPCOR: dipole corrections for dipol
 direction  1 min pos     1, direction  2 min pos     1, direction  3 min pos     1,
 dipolmoment           0.134662      0.214814     -0.301454 electrons x Angstroem
 Tr[quadrupol]        30.261750

 energy correction for charged system         0.000000 eV
 dipol+quadrupol energy correction           -0.000585 eV
 added-field ion interaction         -0.003752 eV  (added to PSCEN)


 Free energy of the ion-electron system (eV)
  ---------------------------------------------------
  alpha Z        PSCENC =         1.41191698
  Ewald energy   TEWEN  =      4180.07565827
  -Hartree energ DENC   =     -5956.51764341
  -exchange      EXHF   =       118.10005892
  -V(xc)+E(xc)   XCENC  =       152.20535299
  PAW double counting   =      4064.66871499    -4075.39110168
  entropy T*S    EENTRO =        -0.00000000
  eigenvalues    EBANDS =      -752.65876201
  atomic energy  EATOM  =      2134.32377930
  ---------------------------------------------------
  free energy    TOTEN  =      -133.78202565 eV

  energy without entropy =     -133.78202565  energy(sigma->0) =     -133.78202565
  exchange ACFDT corr.  =        -0.00000000  see jH, gK, PRB 81, 115126


--------------------------------------------------------------------------------------------------------




--------------------------------------- Iteration      1(  66)  ---------------------------------------


    POTLOK:  cpu time      0.8544: real time      0.8583
    SETDIJ:  cpu time      0.0022: real time      0.0022
    TRIAL :  cpu time      5.1498: real time      5.1807
    CORREC:  cpu time      0.0001: real time      0.0001
    CHARGE:  cpu time      0.1103: real time      0.1112
    --------------------------------------------
      LOOP:  cpu time      6.1172: real time      6.1529

 eigenvalue-minimisations  :     0
 total energy-change (2. order) :-0.4109779E-07  (-0.2069021E-05)
 number of electron      51.9999998 magnetization 
 augmentation part        2.2850492 magnetization 

 DIPCOR: dipole corrections for dipol
 direction  1 min pos     1, direction  2 min pos     1, direction  3 min pos     1,
 dipolmoment           0.134696      0.214819     -0.301477 electrons x Angstroem
 Tr[quadrupol]        30.262014

 energy correction for charged system         0.000000 eV
 dipol+quadrupol energy correction           -0.000585 eV
 added-field ion interaction         -0.003751 eV  (added to PSCEN)


 Free energy of the ion-electron system (eV)
  ---------------------------------------------------
  alpha Z        PSCENC =         1.41191819
  Ewald energy   TEWEN  =      4180.07565827
  -Hartree energ DENC   =     -5956.51428081
  -exchange      EXHF   =       118.09999303
  -V(xc)+E(xc)   XCENC  =       152.20506186
  PAW double counting   =      4064.66589305    -4075.38827192
  entropy T*S    EENTRO =        -0.00000000
  eigenvalues    EBANDS =      -752.66177667
  atomic energy  EATOM  =      2134.32377930
  ---------------------------------------------------
  free energy    TOTEN  =      -133.78202569 eV

  energy without entropy =     -133.78202569  energy(sigma->0) =     -133.78202569
  exchange ACFDT corr.  =        -0.00000000  see jH, gK, PRB 81, 115126


--------------------------------------------------------------------------------------------------------




--------------------------------------- Iteration      1(  67)  ---------------------------------------


    POTLOK:  cpu time      0.8534: real time      0.8568
    SETDIJ:  cpu time      0.0023: real time      0.0023
    TRIAL :  cpu time      5.1496: real time      5.1814
    CORREC:  cpu time      0.0001: real time      0.0001
    CHARGE:  cpu time      0.1098: real time      0.1112
    --------------------------------------------
      LOOP:  cpu time      6.1154: real time      6.1521

 eigenvalue-minimisations  :     0
 total energy-change (2. order) :-0.9555797E-06  (-0.1906054E-05)
 number of electron      51.9999998 magnetization 
 augmentation part        2.2850463 magnetization 

 DIPCOR: dipole corrections for dipol
 direction  1 min pos     1, direction  2 min pos     1, direction  3 min pos     1,
 dipolmoment           0.134676      0.214803     -0.301440 electrons x Angstroem
 Tr[quadrupol]        30.261657

 energy correction for charged system         0.000000 eV
 dipol+quadrupol energy correction           -0.000585 eV
 added-field ion interaction         -0.003751 eV  (added to PSCEN)


 Free energy of the ion-electron system (eV)
  ---------------------------------------------------
  alpha Z        PSCENC =         1.41191814
  Ewald energy   TEWEN  =      4180.07565827
  -Hartree energ DENC   =     -5956.51818556
  -exchange      EXHF   =       118.10007672
  -V(xc)+E(xc)   XCENC  =       152.20534545
  PAW double counting   =      4064.66954103    -4075.39193029
  entropy T*S    EENTRO =        -0.00000000
  eigenvalues    EBANDS =      -752.65822972
  atomic energy  EATOM  =      2134.32377930
  ---------------------------------------------------
  free energy    TOTEN  =      -133.78202664 eV

  energy without entropy =     -133.78202664  energy(sigma->0) =     -133.78202664
  exchange ACFDT corr.  =        -0.00000000  see jH, gK, PRB 81, 115126


--------------------------------------------------------------------------------------------------------




--------------------------------------- Iteration      1(  68)  ---------------------------------------


    POTLOK:  cpu time      0.8542: real time      0.8571
    SETDIJ:  cpu time      0.0023: real time      0.0023
    TRIAL :  cpu time      5.1453: real time      5.1756
    CORREC:  cpu time      0.0001: real time      0.0001
    CHARGE:  cpu time      0.1104: real time      0.1113
    --------------------------------------------
      LOOP:  cpu time      6.1125: real time      6.1466

 eigenvalue-minimisations  :     0
 total energy-change (2. order) :-0.3158862E-06  (-0.1877763E-05)
 number of electron      51.9999998 magnetization 
 augmentation part        2.2850488 magnetization 

 DIPCOR: dipole corrections for dipol
 direction  1 min pos     1, direction  2 min pos     1, direction  3 min pos     1,
 dipolmoment           0.134704      0.214807     -0.301469 electrons x Angstroem
 Tr[quadrupol]        30.261940

 energy correction for charged system         0.000000 eV
 dipol+quadrupol energy correction           -0.000585 eV
 added-field ion interaction         -0.003750 eV  (added to PSCEN)


 Free energy of the ion-electron system (eV)
  ---------------------------------------------------
  alpha Z        PSCENC =         1.41191923
  Ewald energy   TEWEN  =      4180.07565827
  -Hartree energ DENC   =     -5956.51478641
  -exchange      EXHF   =       118.10000767
  -V(xc)+E(xc)   XCENC  =       152.20510196
  PAW double counting   =      4064.66654884    -4075.38892781
  entropy T*S    EENTRO =        -0.00000000
  eigenvalues    EBANDS =      -752.66132800
  atomic energy  EATOM  =      2134.32377930
  ---------------------------------------------------
  free energy    TOTEN  =      -133.78202696 eV

  energy without entropy =     -133.78202696  energy(sigma->0) =     -133.78202696
  exchange ACFDT corr.  =        -0.00000000  see jH, gK, PRB 81, 115126


--------------------------------------------------------------------------------------------------------




--------------------------------------- Iteration      1(  69)  ---------------------------------------


    POTLOK:  cpu time      0.8544: real time      0.8579
    SETDIJ:  cpu time      0.0024: real time      0.0024
    TRIAL :  cpu time      5.1525: real time      5.1847
    CORREC:  cpu time      0.0001: real time      0.0001
    CHARGE:  cpu time      0.1102: real time      0.1110
    --------------------------------------------
      LOOP:  cpu time      6.1248: real time      6.1614

 eigenvalue-minimisations  :     0
 total energy-change (2. order) : 0.1396302E-06  (-0.1426529E-05)
 number of electron      51.9999998 magnetization 
 augmentation part        2.2850479 magnetization 

 DIPCOR: dipole corrections for dipol
 direction  1 min pos     1, direction  2 min pos     1, direction  3 min pos     1,
 dipolmoment           0.134699      0.214785     -0.301436 electrons x Angstroem
 Tr[quadrupol]        30.261695

 energy correction for charged system         0.000000 eV
 dipol+quadrupol energy correction           -0.000585 eV
 added-field ion interaction         -0.003749 eV  (added to PSCEN)


 Free energy of the ion-electron system (eV)
  ---------------------------------------------------
  alpha Z        PSCENC =         1.41192022
  Ewald energy   TEWEN  =      4180.07565827
  -Hartree energ DENC   =     -5956.51763962
  -exchange      EXHF   =       118.10007111
  -V(xc)+E(xc)   XCENC  =       152.20529720
  PAW double counting   =      4064.66945297    -4075.39184029
  entropy T*S    EENTRO =        -0.00000000
  eigenvalues    EBANDS =      -752.65872599
  atomic energy  EATOM  =      2134.32377930
  ---------------------------------------------------
  free energy    TOTEN  =      -133.78202682 eV

  energy without entropy =     -133.78202682  energy(sigma->0) =     -133.78202682
  exchange ACFDT corr.  =        -0.00000000  see jH, gK, PRB 81, 115126


--------------------------------------------------------------------------------------------------------




--------------------------------------- Iteration      1(  70)  ---------------------------------------


    POTLOK:  cpu time      0.8539: real time      0.8571
    SETDIJ:  cpu time      0.0022: real time      0.0022
    TRIAL :  cpu time      5.1587: real time      5.1889
    CORREC:  cpu time      0.0001: real time      0.0001
    CHARGE:  cpu time      0.1103: real time      0.1111
    --------------------------------------------
      LOOP:  cpu time      6.1254: real time      6.1597

 eigenvalue-minimisations  :     0
 total energy-change (2. order) :-0.1082643E-05  (-0.1213490E-05)
 number of electron      51.9999998 magnetization 
 augmentation part        2.2850484 magnetization 

 DIPCOR: dipole corrections for dipol
 direction  1 min pos     1, direction  2 min pos     1, direction  3 min pos     1,
 dipolmoment           0.134709      0.214801     -0.301462 electrons x Angstroem
 Tr[quadrupol]        30.261795

 energy correction for charged system         0.000000 eV
 dipol+quadrupol energy correction           -0.000585 eV
 added-field ion interaction         -0.003749 eV  (added to PSCEN)


 Free energy of the ion-electron system (eV)
  ---------------------------------------------------
  alpha Z        PSCENC =         1.41191980
  Ewald energy   TEWEN  =      4180.07565827
  -Hartree energ DENC   =     -5956.51635993
  -exchange      EXHF   =       118.10004597
  -V(xc)+E(xc)   XCENC  =       152.20515675
  PAW double counting   =      4064.66831851    -4075.39070293
  entropy T*S    EENTRO =        -0.00000000
  eigenvalues    EBANDS =      -752.65984364
  atomic energy  EATOM  =      2134.32377930
  ---------------------------------------------------
  free energy    TOTEN  =      -133.78202790 eV

  energy without entropy =     -133.78202790  energy(sigma->0) =     -133.78202790
  exchange ACFDT corr.  =        -0.00000000  see jH, gK, PRB 81, 115126


--------------------------------------------------------------------------------------------------------




--------------------------------------- Iteration      1(  71)  ---------------------------------------


    POTLOK:  cpu time      0.8521: real time      0.8561
    SETDIJ:  cpu time      0.0024: real time      0.0024
    TRIAL :  cpu time      5.1571: real time      5.1882
    CORREC:  cpu time      0.0001: real time      0.0001
    CHARGE:  cpu time      0.1102: real time      0.1111
    --------------------------------------------
      LOOP:  cpu time      6.1223: real time      6.1582

 eigenvalue-minimisations  :     0
 total energy-change (2. order) : 0.9848009E-07  (-0.1342317E-05)
 number of electron      51.9999998 magnetization 
 augmentation part        2.2850483 magnetization 

 DIPCOR: dipole corrections for dipol
 direction  1 min pos     1, direction  2 min pos     1, direction  3 min pos     1,
 dipolmoment           0.134707      0.214775     -0.301431 electrons x Angstroem
 Tr[quadrupol]        30.261684

 energy correction for charged system         0.000000 eV
 dipol+quadrupol energy correction           -0.000585 eV
 added-field ion interaction         -0.003748 eV  (added to PSCEN)


 Free energy of the ion-electron system (eV)
  ---------------------------------------------------
  alpha Z        PSCENC =         1.41192109
  Ewald energy   TEWEN  =      4180.07565827
  -Hartree energ DENC   =     -5956.51750620
  -exchange      EXHF   =       118.10007098
  -V(xc)+E(xc)   XCENC  =       152.20529638
  PAW double counting   =      4064.66956623    -4075.39195235
  entropy T*S    EENTRO =        -0.00000000
  eigenvalues    EBANDS =      -752.65886149
  atomic energy  EATOM  =      2134.32377930
  ---------------------------------------------------
  free energy    TOTEN  =      -133.78202780 eV

  energy without entropy =     -133.78202780  energy(sigma->0) =     -133.78202780
  exchange ACFDT corr.  =        -0.00000000  see jH, gK, PRB 81, 115126


--------------------------------------------------------------------------------------------------------




--------------------------------------- Iteration      1(  72)  ---------------------------------------


    POTLOK:  cpu time      0.8539: real time      0.8571
    SETDIJ:  cpu time      0.0023: real time      0.0023
    TRIAL :  cpu time      5.1508: real time      5.1829
    CORREC:  cpu time      0.0001: real time      0.0002
    CHARGE:  cpu time      0.1106: real time      0.1111
    --------------------------------------------
      LOOP:  cpu time      6.1179: real time      6.1540

 eigenvalue-minimisations  :     0
 total energy-change (2. order) :-0.4511062E-06  (-0.1599128E-05)
 number of electron      51.9999998 magnetization 
 augmentation part        2.2850487 magnetization 

 DIPCOR: dipole corrections for dipol
 direction  1 min pos     1, direction  2 min pos     1, direction  3 min pos     1,
 dipolmoment           0.134719      0.214792     -0.301455 electrons x Angstroem
 Tr[quadrupol]        30.261799

 energy correction for charged system         0.000000 eV
 dipol+quadrupol energy correction           -0.000585 eV
 added-field ion interaction         -0.003749 eV  (added to PSCEN)


 Free energy of the ion-electron system (eV)
  ---------------------------------------------------
  alpha Z        PSCENC =         1.41192082
  Ewald energy   TEWEN  =      4180.07565827
  -Hartree energ DENC   =     -5956.51613751
  -exchange      EXHF   =       118.10005000
  -V(xc)+E(xc)   XCENC  =       152.20512614
  PAW double counting   =      4064.66863185    -4075.39101724
  entropy T*S    EENTRO =        -0.00000000
  eigenvalues    EBANDS =      -752.66003989
  atomic energy  EATOM  =      2134.32377930
  ---------------------------------------------------
  free energy    TOTEN  =      -133.78202826 eV

  energy without entropy =     -133.78202826  energy(sigma->0) =     -133.78202826
  exchange ACFDT corr.  =        -0.00000000  see jH, gK, PRB 81, 115126


--------------------------------------------------------------------------------------------------------




--------------------------------------- Iteration      1(  73)  ---------------------------------------


    POTLOK:  cpu time      0.8543: real time      0.8575
    SETDIJ:  cpu time      0.0022: real time      0.0022
    TRIAL :  cpu time      5.1478: real time      5.1807
    CORREC:  cpu time      0.0001: real time      0.0001
    CHARGE:  cpu time      0.1095: real time      0.1111
    --------------------------------------------
      LOOP:  cpu time      6.1144: real time      6.1644

 eigenvalue-minimisations  :     0
 total energy-change (2. order) :-0.5299339E-06  (-0.1572546E-05)
 number of electron      51.9999998 magnetization 
 augmentation part        2.2850485 magnetization 

 DIPCOR: dipole corrections for dipol
 direction  1 min pos     1, direction  2 min pos     1, direction  3 min pos     1,
 dipolmoment           0.134726      0.214766     -0.301430 electrons x Angstroem
 Tr[quadrupol]        30.261630

 energy correction for charged system         0.000000 eV
 dipol+quadrupol energy correction           -0.000585 eV
 added-field ion interaction         -0.003747 eV  (added to PSCEN)


 Free energy of the ion-electron system (eV)
  ---------------------------------------------------
  alpha Z        PSCENC =         1.41192252
  Ewald energy   TEWEN  =      4180.07565827
  -Hartree energ DENC   =     -5956.51808923
  -exchange      EXHF   =       118.10008752
  -V(xc)+E(xc)   XCENC  =       152.20531672
  PAW double counting   =      4064.67062550    -4075.39301254
  entropy T*S    EENTRO =        -0.00000000
  eigenvalues    EBANDS =      -752.65831685
  atomic energy  EATOM  =      2134.32377930
  ---------------------------------------------------
  free energy    TOTEN  =      -133.78202879 eV

  energy without entropy =     -133.78202879  energy(sigma->0) =     -133.78202879
  exchange ACFDT corr.  =        -0.00000000  see jH, gK, PRB 81, 115126


--------------------------------------------------------------------------------------------------------




--------------------------------------- Iteration      1(  74)  ---------------------------------------


    POTLOK:  cpu time      0.8546: real time      0.8575
    SETDIJ:  cpu time      0.0028: real time      0.0028
    TRIAL :  cpu time      5.1557: real time      5.1874
    CORREC:  cpu time      0.0001: real time      0.0002
    CHARGE:  cpu time      0.1108: real time      0.1114
    --------------------------------------------
      LOOP:  cpu time      6.1245: real time      6.1599

 eigenvalue-minimisations  :     0
 total energy-change (2. order) :-0.4192075E-06  (-0.1700159E-05)
 number of electron      51.9999998 magnetization 
 augmentation part        2.2850484 magnetization 

 DIPCOR: dipole corrections for dipol
 direction  1 min pos     1, direction  2 min pos     1, direction  3 min pos     1,
 dipolmoment           0.134714      0.214784     -0.301450 electrons x Angstroem
 Tr[quadrupol]        30.261713

 energy correction for charged system         0.000000 eV
 dipol+quadrupol energy correction           -0.000585 eV
 added-field ion interaction         -0.003748 eV  (added to PSCEN)


 Free energy of the ion-electron system (eV)
  ---------------------------------------------------
  alpha Z        PSCENC =         1.41192103
  Ewald energy   TEWEN  =      4180.07565827
  -Hartree energ DENC   =     -5956.51687990
  -exchange      EXHF   =       118.10006340
  -V(xc)+E(xc)   XCENC  =       152.20516270
  PAW double counting   =      4064.66916944    -4075.39155567
  entropy T*S    EENTRO =        -0.00000000
  eigenvalues    EBANDS =      -752.65934779
  atomic energy  EATOM  =      2134.32377930
  ---------------------------------------------------
  free energy    TOTEN  =      -133.78202920 eV

  energy without entropy =     -133.78202920  energy(sigma->0) =     -133.78202920
  exchange ACFDT corr.  =        -0.00000000  see jH, gK, PRB 81, 115126


--------------------------------------------------------------------------------------------------------




--------------------------------------- Iteration      1(  75)  ---------------------------------------


    POTLOK:  cpu time      0.8552: real time      0.8585
    SETDIJ:  cpu time      0.0022: real time      0.0023
    TRIAL :  cpu time      5.1421: real time      5.1763
    CORREC:  cpu time      0.0001: real time      0.0001
    CHARGE:  cpu time      0.1101: real time      0.1111
    --------------------------------------------
      LOOP:  cpu time      6.1100: real time      6.1487

 eigenvalue-minimisations  :     0
 total energy-change (2. order) : 0.7102517E-07  (-0.1481941E-05)
 number of electron      51.9999998 magnetization 
 augmentation part        2.2850486 magnetization 

 DIPCOR: dipole corrections for dipol
 direction  1 min pos     1, direction  2 min pos     1, direction  3 min pos     1,
 dipolmoment           0.134739      0.214762     -0.301428 electrons x Angstroem
 Tr[quadrupol]        30.261711

 energy correction for charged system         0.000000 eV
 dipol+quadrupol energy correction           -0.000585 eV
 added-field ion interaction         -0.003746 eV  (added to PSCEN)


 Free energy of the ion-electron system (eV)
  ---------------------------------------------------
  alpha Z        PSCENC =         1.41192340
  Ewald energy   TEWEN  =      4180.07565827
  -Hartree energ DENC   =     -5956.51710087
  -exchange      EXHF   =       118.10007473
  -V(xc)+E(xc)   XCENC  =       152.20530621
  PAW double counting   =      4064.67004100    -4075.39242678
  entropy T*S    EENTRO =        -0.00000000
  eigenvalues    EBANDS =      -752.65928439
  atomic energy  EATOM  =      2134.32377930
  ---------------------------------------------------
  free energy    TOTEN  =      -133.78202913 eV

  energy without entropy =     -133.78202913  energy(sigma->0) =     -133.78202913
  exchange ACFDT corr.  =        -0.00000000  see jH, gK, PRB 81, 115126


--------------------------------------------------------------------------------------------------------




--------------------------------------- Iteration      1(  76)  ---------------------------------------


    POTLOK:  cpu time      0.8531: real time      0.8578
    SETDIJ:  cpu time      0.0024: real time      0.0024
    TRIAL :  cpu time      5.1452: real time      5.1803
    CORREC:  cpu time      0.0001: real time      0.0001
    CHARGE:  cpu time      0.1101: real time      0.1112
    --------------------------------------------
      LOOP:  cpu time      6.1112: real time      6.1520

 eigenvalue-minimisations  :     0
 total energy-change (2. order) :-0.3062596E-06  (-0.1213460E-05)
 number of electron      51.9999998 magnetization 
 augmentation part        2.2850493 magnetization 

 DIPCOR: dipole corrections for dipol
 direction  1 min pos     1, direction  2 min pos     1, direction  3 min pos     1,
 dipolmoment           0.134731      0.214772     -0.301445 electrons x Angstroem
 Tr[quadrupol]        30.261753

 energy correction for charged system         0.000000 eV
 dipol+quadrupol energy correction           -0.000585 eV
 added-field ion interaction         -0.003747 eV  (added to PSCEN)


 Free energy of the ion-electron system (eV)
  ---------------------------------------------------
  alpha Z        PSCENC =         1.41192244
  Ewald energy   TEWEN  =      4180.07565827
  -Hartree energ DENC   =     -5956.51672294
  -exchange      EXHF   =       118.10006708
  -V(xc)+E(xc)   XCENC  =       152.20512791
  PAW double counting   =      4064.66974179    -4075.39212847
  entropy T*S    EENTRO =        -0.00000000
  eigenvalues    EBANDS =      -752.65947482
  atomic energy  EATOM  =      2134.32377930
  ---------------------------------------------------
  free energy    TOTEN  =      -133.78202944 eV

  energy without entropy =     -133.78202944  energy(sigma->0) =     -133.78202944
  exchange ACFDT corr.  =        -0.00000000  see jH, gK, PRB 81, 115126


--------------------------------------------------------------------------------------------------------




--------------------------------------- Iteration      1(  77)  ---------------------------------------


    POTLOK:  cpu time      0.8556: real time      0.8595
    SETDIJ:  cpu time      0.0022: real time      0.0022
    TRIAL :  cpu time      5.1583: real time      5.1946
    CORREC:  cpu time      0.0001: real time      0.0001
    CHARGE:  cpu time      0.1105: real time      0.1112
    --------------------------------------------
      LOOP:  cpu time      6.1270: real time      6.1679

 eigenvalue-minimisations  :     0
 total energy-change (2. order) :-0.2151824E-06  (-0.1111190E-05)
 number of electron      51.9999998 magnetization 
 augmentation part        2.2850475 magnetization 

 DIPCOR: dipole corrections for dipol
 direction  1 min pos     1, direction  2 min pos     1, direction  3 min pos     1,
 dipolmoment           0.134734      0.214754     -0.301430 electrons x Angstroem
 Tr[quadrupol]        30.261544

 energy correction for charged system         0.000000 eV
 dipol+quadrupol energy correction           -0.000585 eV
 added-field ion interaction         -0.003746 eV  (added to PSCEN)


 Free energy of the ion-electron system (eV)
  ---------------------------------------------------
  alpha Z        PSCENC =         1.41192348
  Ewald energy   TEWEN  =      4180.07565827
  -Hartree energ DENC   =     -5956.51884371
  -exchange      EXHF   =       118.10010838
  -V(xc)+E(xc)   XCENC  =       152.20535565
  PAW double counting   =      4064.67149007    -4075.39387867
  entropy T*S    EENTRO =        -0.00000000
  eigenvalues    EBANDS =      -752.65762243
  atomic energy  EATOM  =      2134.32377930
  ---------------------------------------------------
  free energy    TOTEN  =      -133.78202966 eV

  energy without entropy =     -133.78202966  energy(sigma->0) =     -133.78202966
  exchange ACFDT corr.  =        -0.00000000  see jH, gK, PRB 81, 115126


--------------------------------------------------------------------------------------------------------




--------------------------------------- Iteration      1(  78)  ---------------------------------------


    POTLOK:  cpu time      0.8550: real time      0.8586
    SETDIJ:  cpu time      0.0023: real time      0.0023
    TRIAL :  cpu time      5.1509: real time      5.1860
    CORREC:  cpu time      0.0001: real time      0.0001
    CHARGE:  cpu time      0.1101: real time      0.1111
    --------------------------------------------
      LOOP:  cpu time      6.1185: real time      6.1583

 eigenvalue-minimisations  :     0
 total energy-change (2. order) : 0.4680805E-06  (-0.1106345E-05)
 number of electron      51.9999998 magnetization 
 augmentation part        2.2850504 magnetization 

 DIPCOR: dipole corrections for dipol
 direction  1 min pos     1, direction  2 min pos     1, direction  3 min pos     1,
 dipolmoment           0.134743      0.214772     -0.301434 electrons x Angstroem
 Tr[quadrupol]        30.261820

 energy correction for charged system         0.000000 eV
 dipol+quadrupol energy correction           -0.000585 eV
 added-field ion interaction         -0.003746 eV  (added to PSCEN)


 Free energy of the ion-electron system (eV)
  ---------------------------------------------------
  alpha Z        PSCENC =         1.41192302
  Ewald energy   TEWEN  =      4180.07565827
  -Hartree energ DENC   =     -5956.51556250
  -exchange      EXHF   =       118.10004571
  -V(xc)+E(xc)   XCENC  =       152.20508137
  PAW double counting   =      4064.66896068    -4075.39134337
  entropy T*S    EENTRO =        -0.00000000
  eigenvalues    EBANDS =      -752.66057168
  atomic energy  EATOM  =      2134.32377930
  ---------------------------------------------------
  free energy    TOTEN  =      -133.78202919 eV

  energy without entropy =     -133.78202919  energy(sigma->0) =     -133.78202919
  exchange ACFDT corr.  =        -0.00000000  see jH, gK, PRB 81, 115126


--------------------------------------------------------------------------------------------------------




--------------------------------------- Iteration      1(  79)  ---------------------------------------


    POTLOK:  cpu time      0.8547: real time      0.8585
    SETDIJ:  cpu time      0.0033: real time      0.0033
    TRIAL :  cpu time      5.1366: real time      5.1729
    CORREC:  cpu time      0.0001: real time      0.0001
    CHARGE:  cpu time      0.1102: real time      0.1111
    --------------------------------------------
      LOOP:  cpu time      6.1051: real time      6.1462

 eigenvalue-minimisations  :     0
 total energy-change (2. order) :-0.1053051E-05  (-0.1158626E-05)
 number of electron      51.9999998 magnetization 
 augmentation part        2.2850476 magnetization 

 DIPCOR: dipole corrections for dipol
 direction  1 min pos     1, direction  2 min pos     1, direction  3 min pos     1,
 dipolmoment           0.134737      0.214755     -0.301442 electrons x Angstroem
 Tr[quadrupol]        30.261480

 energy correction for charged system         0.000000 eV
 dipol+quadrupol energy correction           -0.000585 eV
 added-field ion interaction         -0.003746 eV  (added to PSCEN)


 Free energy of the ion-electron system (eV)
  ---------------------------------------------------
  alpha Z        PSCENC =         1.41192365
  Ewald energy   TEWEN  =      4180.07565827
  -Hartree energ DENC   =     -5956.51957844
  -exchange      EXHF   =       118.10012907
  -V(xc)+E(xc)   XCENC  =       152.20537001
  PAW double counting   =      4064.67256120    -4075.39495337
  entropy T*S    EENTRO =        -0.00000000
  eigenvalues    EBANDS =      -752.65691995
  atomic energy  EATOM  =      2134.32377930
  ---------------------------------------------------
  free energy    TOTEN  =      -133.78203024 eV

  energy without entropy =     -133.78203024  energy(sigma->0) =     -133.78203024
  exchange ACFDT corr.  =        -0.00000000  see jH, gK, PRB 81, 115126


--------------------------------------------------------------------------------------------------------




--------------------------------------- Iteration      1(  80)  ---------------------------------------


    POTLOK:  cpu time      0.8552: real time      0.8589
    SETDIJ:  cpu time      0.0022: real time      0.0022
    TRIAL :  cpu time      5.1496: real time      5.1806
    CORREC:  cpu time      0.0001: real time      0.0001
    CHARGE:  cpu time      0.1098: real time      0.1112
    --------------------------------------------
      LOOP:  cpu time      6.1172: real time      6.1533

 eigenvalue-minimisations  :     0
 total energy-change (2. order) : 0.8376905E-06  (-0.1298950E-05)
 number of electron      51.9999998 magnetization 
 augmentation part        2.2850499 magnetization 

 DIPCOR: dipole corrections for dipol
 direction  1 min pos     1, direction  2 min pos     1, direction  3 min pos     1,
 dipolmoment           0.134745      0.214761     -0.301423 electrons x Angstroem
 Tr[quadrupol]        30.261785

 energy correction for charged system         0.000000 eV
 dipol+quadrupol energy correction           -0.000585 eV
 added-field ion interaction         -0.003746 eV  (added to PSCEN)


 Free energy of the ion-electron system (eV)
  ---------------------------------------------------
  alpha Z        PSCENC =         1.41192359
  Ewald energy   TEWEN  =      4180.07565827
  -Hartree energ DENC   =     -5956.51599532
  -exchange      EXHF   =       118.10005337
  -V(xc)+E(xc)   XCENC  =       152.20510151
  PAW double counting   =      4064.66914583    -4075.39152864
  entropy T*S    EENTRO =        -0.00000000
  eigenvalues    EBANDS =      -752.66016732
  atomic energy  EATOM  =      2134.32377930
  ---------------------------------------------------
  free energy    TOTEN  =      -133.78202940 eV

  energy without entropy =     -133.78202940  energy(sigma->0) =     -133.78202940
  exchange ACFDT corr.  =        -0.00000000  see jH, gK, PRB 81, 115126


--------------------------------------------------------------------------------------------------------




--------------------------------------- Iteration      1(  81)  ---------------------------------------


    POTLOK:  cpu time      0.8544: real time      0.8574
    SETDIJ:  cpu time      0.0024: real time      0.0024
    TRIAL :  cpu time      5.1539: real time      5.1842
    CORREC:  cpu time      0.0001: real time      0.0001
    CHARGE:  cpu time      0.1103: real time      0.1111
    --------------------------------------------
      LOOP:  cpu time      6.1213: real time      6.1555

 eigenvalue-minimisations  :     0
 total energy-change (2. order) :-0.7145291E-06  (-0.1128344E-05)
 number of electron      51.9999998 magnetization 
 augmentation part        2.2850482 magnetization 

 DIPCOR: dipole corrections for dipol
 direction  1 min pos     1, direction  2 min pos     1, direction  3 min pos     1,
 dipolmoment           0.134745      0.214759     -0.301442 electrons x Angstroem
 Tr[quadrupol]        30.261503

 energy correction for charged system         0.000000 eV
 dipol+quadrupol energy correction           -0.000585 eV
 added-field ion interaction         -0.003746 eV  (added to PSCEN)


 Free energy of the ion-electron system (eV)
  ---------------------------------------------------
  alpha Z        PSCENC =         1.41192379
  Ewald energy   TEWEN  =      4180.07565827
  -Hartree energ DENC   =     -5956.51910780
  -exchange      EXHF   =       118.10012187
  -V(xc)+E(xc)   XCENC  =       152.20534452
  PAW double counting   =      4064.67241235    -4075.39480303
  entropy T*S    EENTRO =        -0.00000000
  eigenvalues    EBANDS =      -752.65735939
  atomic energy  EATOM  =      2134.32377930
  ---------------------------------------------------
  free energy    TOTEN  =      -133.78203012 eV

  energy without entropy =     -133.78203012  energy(sigma->0) =     -133.78203012
  exchange ACFDT corr.  =        -0.00000000  see jH, gK, PRB 81, 115126


--------------------------------------------------------------------------------------------------------




--------------------------------------- Iteration      1(  82)  ---------------------------------------


    POTLOK:  cpu time      0.8546: real time      0.8582
    SETDIJ:  cpu time      0.0025: real time      0.0025
    TRIAL :  cpu time      5.1500: real time      5.1906
    CORREC:  cpu time      0.0001: real time      0.0002
    CHARGE:  cpu time      0.1110: real time      0.1116
    --------------------------------------------
      LOOP:  cpu time      6.1184: real time      6.1632

 eigenvalue-minimisations  :     0
 total energy-change (2. order) : 0.9592395E-07  (-0.1022531E-05)
 number of electron      51.9999998 magnetization 
 augmentation part        2.2850496 magnetization 

 DIPCOR: dipole corrections for dipol
 direction  1 min pos     1, direction  2 min pos     1, direction  3 min pos     1,
 dipolmoment           0.134751      0.214750     -0.301416 electrons x Angstroem
 Tr[quadrupol]        30.261720

 energy correction for charged system         0.000000 eV
 dipol+quadrupol energy correction           -0.000585 eV
 added-field ion interaction         -0.003745 eV  (added to PSCEN)


 Free energy of the ion-electron system (eV)
  ---------------------------------------------------
  alpha Z        PSCENC =         1.41192461
  Ewald energy   TEWEN  =      4180.07565827
  -Hartree energ DENC   =     -5956.51663220
  -exchange      EXHF   =       118.10006941
  -V(xc)+E(xc)   XCENC  =       152.20514674
  PAW double counting   =      4064.66979700    -4075.39218169
  entropy T*S    EENTRO =        -0.00000000
  eigenvalues    EBANDS =      -752.65959146
  atomic energy  EATOM  =      2134.32377930
  ---------------------------------------------------
  free energy    TOTEN  =      -133.78203002 eV

  energy without entropy =     -133.78203002  energy(sigma->0) =     -133.78203002
  exchange ACFDT corr.  =        -0.00000000  see jH, gK, PRB 81, 115126


--------------------------------------------------------------------------------------------------------




--------------------------------------- Iteration      1(  83)  ---------------------------------------


    POTLOK:  cpu time      0.8543: real time      0.8575
    SETDIJ:  cpu time      0.0022: real time      0.0022
    TRIAL :  cpu time      5.1600: real time      5.1908
    CORREC:  cpu time      0.0001: real time      0.0001
    EDDIAG:  cpu time      4.8123: real time      4.8817
    CHARGE:  cpu time      0.1106: real time      0.1112
    --------------------------------------------
      LOOP:  cpu time     10.9401: real time     11.0531

 eigenvalue-minimisations  :     0
 total energy-change (2. order) :-0.5865650E-06  (-0.9019308E-06)
 number of electron      51.9999998 magnetization 
 augmentation part        2.2850483 magnetization 

 DIPCOR: dipole corrections for dipol
 direction  1 min pos     1, direction  2 min pos     1, direction  3 min pos     1,
 dipolmoment           0.134751      0.214755     -0.301436 electrons x Angstroem
 Tr[quadrupol]        30.261551

 energy correction for charged system         0.000000 eV
 dipol+quadrupol energy correction           -0.000585 eV
 added-field ion interaction         -0.003745 eV  (added to PSCEN)


 Free energy of the ion-electron system (eV)
  ---------------------------------------------------
  alpha Z        PSCENC =         1.41192435
  Ewald energy   TEWEN  =      4180.07565827
  -Hartree energ DENC   =     -5956.51866665
  -exchange      EXHF   =       118.10007301
  -V(xc)+E(xc)   XCENC  =       152.20533207
  PAW double counting   =      4064.67195665    -4075.39434607
  entropy T*S    EENTRO =        -0.00000000
  eigenvalues    EBANDS =      -752.65778176
  atomic energy  EATOM  =      2134.32377930
  ---------------------------------------------------
  free energy    TOTEN  =      -133.78203061 eV

  energy without entropy =     -133.78203061  energy(sigma->0) =     -133.78203061
  exchange ACFDT corr.  =        -0.00000000  see jH, gK, PRB 81, 115126


--------------------------------------------------------------------------------------------------------


  average scaling for gradient   0.5389


 average (electrostatic) potential at core
  the test charge radii are     0.6991  0.5201  0.7089  0.7215
  (the norm of the test charge is              1.0000)
       1 -56.6995       2 -56.6648       3 -57.1541       4 -55.5080       5 -55.3661
       6 -55.9866       7 -40.0683       8 -39.8508       9 -39.4592      10 -41.5898
      11 -38.8785      12 -38.9799      13 -38.6742      14 -38.8232      15 -38.4069
      16 -38.2350      17 -41.0085      18 -69.0869      19 -75.7596      20 -75.0105
 
 
 
 E-fermi :  -7.0576     XC(G=0):  -0.2436     alpha+bet : -0.1428

 Fermi energy:        -7.0576363167

 k-point     1 :       0.0000    0.0000    0.0000
  band No.  band energies     occupation 
      1     -28.6707      2.00000
      2     -27.9404      2.00000
      3     -24.8318      2.00000
      4     -22.6506      2.00000
      5     -21.3753      2.00000
      6     -19.1470      2.00000
      7     -17.4784      2.00000
      8     -16.0616      2.00000
      9     -15.1482      2.00000
     10     -14.4508      2.00000
     11     -13.6946      2.00000
     12     -13.1493      2.00000
     13     -12.9272      2.00000
     14     -12.3451      2.00000
     15     -11.9074      2.00000
     16     -11.4654      2.00000
     17     -10.8454      2.00000
     18     -10.5875      2.00000
     19     -10.1136      2.00000
     20      -9.7720      2.00000
     21      -9.3557      2.00000
     22      -9.1341      2.00000
     23      -9.1046      2.00000
     24      -8.7624      2.00000
     25      -8.1144      2.00000
     26      -7.2955      2.00000
     27      -0.7311      0.00000
     28      -0.2765      0.00000
     29      -0.0769      0.00000
     30       0.1511      0.00000
     31       0.1866      0.00000
     32       0.3111      0.00000
     33       0.3928      0.00000
     34       0.4222      0.00000
     35       0.4401      0.00000
     36       0.5082      0.00000
     37       0.5542      0.00000
     38       0.6806      0.00000
     39       0.6989      0.00000
     40       0.7024      0.00000


--------------------------------------------------------------------------------------------------------


 soft charge-density along one line, spin component           1
         0         1         2         3         4         5         6         7         8         9
 total charge-density along one line
 
 pseudopotential strength for first ion, spin component:           1
 10.101  13.431  -0.001   0.002   0.001   0.002  -0.004  -0.002
 13.431  17.857  -0.001   0.003   0.001   0.003  -0.005  -0.003
 -0.001  -0.001  -4.346   0.005   0.002   8.518  -0.008  -0.003
  0.002   0.003   0.005  -4.374  -0.008  -0.008   8.564   0.012
  0.001   0.001   0.002  -0.008  -4.347  -0.003   0.012   8.520
  0.002   0.003   8.518  -0.008  -0.003 -18.826   0.013   0.004
 -0.004  -0.005  -0.008   8.564   0.012   0.013 -18.896  -0.019
 -0.002  -0.003  -0.003   0.012   8.520   0.004  -0.019 -18.829
 total augmentation occupancy for first ion, spin component:           1
  8.534  -3.856   0.143  -0.969  -0.237   0.025  -0.171  -0.041
 -3.856   1.879  -0.088   0.588   0.146  -0.015   0.101   0.024
  0.143  -0.088   1.245  -0.165  -0.043   0.079  -0.025  -0.007
 -0.969   0.588  -0.165   2.223   0.259  -0.025   0.225   0.039
 -0.237   0.146  -0.043   0.259   1.283  -0.007   0.039   0.084
  0.025  -0.015   0.079  -0.025  -0.007   0.005  -0.004  -0.001
 -0.171   0.101  -0.025   0.225   0.039  -0.004   0.027   0.006
 -0.041   0.024  -0.007   0.039   0.084  -0.001   0.006   0.006


------------------------ aborting loop because EDIFF is reached ----------------------------------------





 total charge

# of ion       s       p       d       tot
------------------------------------------
    1        0.934   1.773   0.000   2.707
    2        0.841   1.785   0.000   2.626
    3        0.832   1.712   0.000   2.544
    4        0.840   1.801   0.000   2.641
    5        0.838   1.779   0.000   2.617
    6        0.829   1.734   0.000   2.563
    7        0.637   0.044   0.000   0.681
    8        0.629   0.044   0.000   0.674
    9        0.656   0.044   0.000   0.700
   10        0.600   0.101   0.000   0.701
   11        0.633   0.040   0.000   0.673
   12        0.633   0.043   0.000   0.676
   13        0.630   0.039   0.000   0.669
   14        0.636   0.040   0.000   0.676
   15        0.656   0.046   0.000   0.702
   16        0.647   0.039   0.000   0.687
   17        0.615   0.111   0.000   0.726
   18        1.327   2.463   0.000   3.789
   19        1.566   3.586   0.000   5.151
   20        1.561   3.611   0.000   5.172
--------------------------------------------------
tot         16.540  20.834   0.000  37.374
 
    FORLOC:  cpu time      0.0513: real time      0.0515
    FORHF :  cpu time      2.7659: real time      2.7819
    FORNL :  cpu time      0.0877: real time      0.0883
    FORCOR:  cpu time      0.8158: real time      0.8188
    OFIELD:  cpu time      0.0020: real time      0.0020

 VOLUME and BASIS-vectors are now :
 -----------------------------------------------------------------------------
  energy-cutoff  :      500.00
  volume of cell :     8000.00
      direct lattice vectors                 reciprocal lattice vectors
    20.000000000  0.000000000  0.000000000     0.050000000  0.000000000  0.000000000
     0.000000000 20.000000000  0.000000000     0.000000000  0.050000000  0.000000000
     0.000000000  0.000000000 20.000000000     0.000000000  0.000000000  0.050000000

  length of vectors
    20.000000000 20.000000000 20.000000000     0.050000000  0.050000000  0.050000000


 FORCES acting on ions:
    Electron-Ion                     Ewald-Force                    Non-Local-Force
 -----------------------------------------------------------------------------------------------
   0.903E+02 -.682E+02 -.790E+01   -.906E+02 0.687E+02 0.926E+01   -.104E+01 0.638E+00 -.329E+01
   0.139E+03 -.127E+03 -.726E+02   -.137E+03 0.126E+03 0.773E+02   -.216E+01 0.141E+01 -.465E+01
   0.107E+03 0.742E+02 0.461E+02   -.108E+03 -.746E+02 -.518E+02   -.506E+00 0.863E+00 0.590E+01
   -.432E+02 -.780E+02 0.130E+03   0.444E+02 0.788E+02 -.131E+03   -.107E-01 0.679E+00 0.538E+00
   -.822E+02 0.958E+02 0.169E+03   0.826E+02 -.970E+02 -.169E+03   -.788E+00 -.456E+00 -.159E+01
   -.852E+02 0.202E+03 -.255E+02   0.824E+02 -.208E+03 0.238E+02   0.307E+01 0.447E+01 0.143E+01
   0.776E+02 -.918E+01 -.482E+02   -.818E+02 0.864E+01 0.511E+02   0.430E+01 0.699E+00 -.333E+01
   -.141E+02 -.804E+02 -.371E+02   0.168E+02 0.843E+02 0.390E+02   -.317E+01 -.392E+01 -.224E+01
   0.568E+02 0.754E+02 0.259E+02   -.594E+02 -.797E+02 -.279E+02   0.283E+01 0.446E+01 0.178E+01
   0.897E+02 0.299E+02 -.792E+02   -.945E+02 -.312E+02 0.824E+02   0.634E+01 0.141E+01 -.338E+01
   -.411E+02 -.774E+02 -.726E+01   0.429E+02 0.809E+02 0.905E+01   -.247E+01 -.387E+01 -.221E+01
   0.709E+00 -.245E+02 0.828E+02   -.204E+01 0.259E+02 -.870E+02   0.151E+01 -.163E+01 0.487E+01
   0.166E+02 0.706E+02 0.542E+02   -.184E+02 -.740E+02 -.560E+02   0.243E+01 0.376E+01 0.230E+01
   -.602E+02 -.530E+01 0.698E+02   0.634E+02 0.646E+01 -.727E+02   -.361E+01 -.121E+01 0.349E+01
   0.206E+02 0.638E+02 -.534E+02   -.244E+02 -.658E+02 0.569E+02   0.401E+01 0.194E+01 -.365E+01
   -.586E+02 0.726E+02 0.650E+01   0.617E+02 -.760E+02 -.719E+01   -.351E+01 0.383E+01 0.794E+00
   -.631E+02 -.796E+02 0.471E+02   0.650E+02 0.844E+02 -.516E+02   -.176E+01 -.526E+01 0.529E+01
   0.137E+03 -.905E+02 0.286E+03   -.146E+03 0.970E+02 -.324E+03   0.960E+01 -.635E+01 0.370E+02
   0.187E+02 0.630E+02 -.342E+03   0.236E+02 -.604E+02 0.364E+03   -.387E+02 -.307E+01 -.182E+02
   -.270E+03 -.101E+03 -.218E+03   0.279E+03 0.106E+03 0.265E+03   -.727E+01 -.342E+01 -.419E+02
 -----------------------------------------------------------------------------------------------
   0.357E+02 0.604E+01 0.255E+02   0.171E-12 -.711E-13 0.568E-13   -.309E+02 -.504E+01 -.210E+02
 
 
 POSITION                                       TOTAL-FORCE (eV/Angst)
 -----------------------------------------------------------------------------------
      7.76470     11.45074      8.86573        -1.429596      1.237891     -2.250150
      8.13377     11.20351     10.24858         0.018504     -0.165626     -0.244966
      9.03413      9.94516     10.23766        -1.383369      0.502164      0.465294
     10.21338     10.27002      9.39384         1.256667      1.505154     -0.520479
     11.22027      9.17875      9.22694        -0.387269     -1.710026     -1.661470
     11.82268      8.73381     10.53222         0.432070     -1.579908     -0.277999
      7.25982     11.04865     10.90999         0.249852      0.183725     -0.521175
      8.76613     12.00810     10.67838        -0.581154     -0.252315     -0.387523
      8.46567      9.06430      9.87924         0.297126      0.327469     -0.135781
      8.45818      9.58936     12.03738         1.727922      0.229684     -0.347468
     10.74834     11.13724      9.88120        -0.740838     -0.513217     -0.506784
      9.87359     10.60828      8.38159         0.237600     -0.249723      0.940972
     10.67324      8.32524      8.72278         0.730541      0.503870      0.514374
     12.01624      9.47013      8.48906        -0.521375     -0.105280      0.683766
     11.05293      8.35035     11.21865         0.366165      0.098928     -0.272912
     12.57048      7.91511     10.34737        -0.544218      0.499328      0.132727
     12.65869     10.47320     10.44456         0.038937     -0.697722      1.068183
      7.47704     11.63388      7.74270         0.617022     -0.467289      2.364830
      9.34572      9.77568     11.60801        -1.241948     -0.914812      1.201010
     12.44500      9.81848     11.15412         0.857361      1.567709     -0.244449
 -----------------------------------------------------------------------------------
    total drift:                               -0.000134     -0.000834      0.003376


--------------------------------------------------------------------------------------------------------



  FREE ENERGIE OF THE ION-ELECTRON SYSTEM (eV)
  ---------------------------------------------------
  free  energy   TOTEN  =      -133.78203061 eV

  energy  without entropy=     -133.78203061  energy(sigma->0) =     -133.78203061
 


--------------------------------------------------------------------------------------------------------


    POTLOK:  cpu time      0.8556: real time      0.8590


--------------------------------------------------------------------------------------------------------


 writing wavefunctions
     LOOP+:  cpu time    513.8232: real time    520.6545
    4ORBIT:  cpu time      0.0000: real time      0.0000



 total charge

# of ion       s       p       d       tot
------------------------------------------
    1        0.934   1.773   0.000   2.707
    2        0.841   1.785   0.000   2.626
    3        0.832   1.712   0.000   2.544
    4        0.840   1.801   0.000   2.641
    5        0.838   1.779   0.000   2.617
    6        0.829   1.734   0.000   2.563
    7        0.637   0.044   0.000   0.681
    8        0.629   0.044   0.000   0.674
    9        0.656   0.044   0.000   0.700
   10        0.600   0.101   0.000   0.701
   11        0.633   0.040   0.000   0.673
   12        0.633   0.043   0.000   0.676
   13        0.630   0.039   0.000   0.669
   14        0.636   0.040   0.000   0.676
   15        0.656   0.046   0.000   0.702
   16        0.647   0.039   0.000   0.687
   17        0.615   0.111   0.000   0.726
   18        1.327   2.463   0.000   3.789
   19        1.566   3.586   0.000   5.151
   20        1.561   3.611   0.000   5.172
--------------------------------------------------
tot         16.540  20.834   0.000  37.374
 

 total amount of memory used by VASP MPI-rank0   762255. kBytes
=======================================================================

   base      :      30000. kBytes
   nonl-proj :      29279. kBytes
   fftplans  :      75720. kBytes
   grid      :      99427. kBytes
   one-center:         15. kBytes
   HF        :          9. kBytes
   nonlr-proj:        905. kBytes
   wavefun   :      12207. kBytes
   fock_wrk  :     514693. kBytes
 
  
  
 General timing and accounting informations for this job:
 ========================================================
  
                  Total CPU time used (sec):      531.300
                            User time (sec):      468.998
                          System time (sec):       62.302
                         Elapsed time (sec):      543.264
  
                   Maximum memory used (kb):     1243824.
                   Average memory used (kb):          N/A
  
                          Minor page faults:      2101705
                          Major page faults:           62
                 Voluntary context switches:        20695
