Molecule_POSCAR_01
1.0
20.000000 0.000000 0.000000
0.000000 20.000000 0.000000
0.000000 0.000000 20.000000
C H N O
6 11 1 2
Cartesian
7.764700 11.450738 8.865726
8.133767 11.203514 10.248580
9.034133 9.945159 10.237656
10.213378 10.270021 9.393842
11.220272 9.178753 9.226941
11.822677 8.733806 10.532222
7.259817 11.048649 10.909992
8.766132 12.008104 10.678380
8.465671 9.064305 9.879239
8.458181 9.589365 12.037383
10.748339 11.137240 9.881198
9.873588 10.608283 8.381589
10.673237 8.325241 8.722785
12.016242 9.470133 8.489057
11.052934 8.350345 11.218654
12.570484 7.915110 10.347370
12.658695 10.473198 10.444557
7.477036 11.633876 7.742700
9.345719 9.775683 11.608006
12.444997 9.818478 11.154124
