Molecule_POSCAR_01                      
   1.00000000000000     
    30.0000000000000000    0.0000000000000000    0.0000000000000000
     0.0000000000000000   30.0000000000000000    0.0000000000000000
     0.0000000000000000    0.0000000000000000   30.0000000000000000
   C    H    Si
    52    60     2
Direct
  0.6445808666666650  0.4429912000000016  0.4216784666666697
  0.6875141333333303  0.4453446333333346  0.4484135666666660
  0.7177161666666692  0.4083256666666699  0.4307979333333307
  0.6244987999999978  0.4737044000000026  0.5196000333333330
  0.5902234333333354  0.4930953666666653  0.5265889666666652
  0.5468239666666648  0.5171400666666699  0.5346217666666675
  0.5211511999999985  0.4943736999999970  0.5663158666666632
  0.5413108333333341  0.4701767666666683  0.5988638666666688
  0.5156624999999977  0.4489761666666681  0.6307615333333345
  0.4704680999999979  0.4533050333333364  0.6280533333333338
  0.4501703999999975  0.4781100666666660  0.5946342333333305
  0.4762044000000003  0.4986816666666698  0.5636468333333369
  0.4570878666666687  0.5253502999999995  0.5296440333333337
  0.4101439000000013  0.5145509333333322  0.5226778333333328
  0.3712920333333329  0.5058451666666670  0.5171432333333357
  0.3014559666666656  0.4817551666666660  0.4500914666666631
  0.2588232000000019  0.4559784666666644  0.4395925666666685
  0.3414282000000028  0.4575482666666701  0.4307843666666642
  0.2789861666666695  0.5365345666666670  0.5337869333333316
  0.2390175999999968  0.5178452999999976  0.5583157333333304
  0.3063779666666662  0.5655962666666667  0.5657329666666655
  0.3029172999999972  0.4379436333333331  0.5422208666666677
  0.3183801666666639  0.4451495333333355  0.5898626333333326
  0.2588696333333331  0.4179585666666696  0.5382251666666633
  0.4823667666666651  0.5473380999999975  0.5004619999999989
  0.4630490666666702  0.5753325333333308  0.4705166333333324
  0.4160204333333368  0.5835741333333360  0.4641415333333327
  0.3902415333333309  0.6112607000000025  0.4903266999999971
  0.3468313333333342  0.6207792000000012  0.4768466333333308
  0.3293171333333333  0.6032687666666661  0.4384507999999983
  0.3547280666666666  0.5758477666666693  0.4126183999999995
  0.3968948333333344  0.5663389999999993  0.4253453666666687
  0.4920222000000010  0.5999624000000026  0.4425970333333353
  0.4721029666666681  0.6292260999999968  0.4122787666666667
  0.4993061666666634  0.6542107666666652  0.3849584000000021
  0.5448577333333304  0.6507741666666647  0.3871999666666639
  0.5643163666666666  0.6212401000000014  0.4178772666666646
  0.5375641999999985  0.5961629333333320  0.4452235666666695
  0.5565499666666653  0.5668363999999997  0.4764772999999991
  0.6042884666666666  0.5688585666666697  0.4803154333333310
  0.6327123666666665  0.5570412333333365  0.4470191333333347
  0.6787839666666642  0.5621355666666688  0.4516758999999979
  0.6962174333333309  0.5794875333333351  0.4910429999999977
  0.6670474000000013  0.5911500666666640  0.5243903333333364
  0.6220037333333366  0.5858573333333368  0.5189295999999999
  0.5293775666666676  0.5430200999999997  0.5032490666666689
  0.7204785333333348  0.4706966666666688  0.5427455000000023
  0.7626652666666658  0.4783637666666678  0.5165161666666691
  0.7296566666666635  0.4461578666666668  0.5859741666666665
  0.6681224333333304  0.3833494000000002  0.5249966333333305
  0.6297519000000023  0.3661986333333331  0.4982342666666639
  0.7093333666666695  0.3570989999999981  0.5191030333333302
  0.6516305333333321  0.4617644333333359  0.3899583333333325
  0.6376433666666657  0.4082256333333305  0.4108911333333367
  0.6152375333333353  0.4544346666666641  0.4398339999999976
  0.7069119333333305  0.4764827333333344  0.4406132333333304
  0.7192437666666649  0.4150145999999992  0.3933892666666665
  0.7527627333333342  0.4128014333333354  0.4410809000000029
  0.7039389999999983  0.3750040333333331  0.4335877999999980
  0.5770659666666660  0.4680198000000004  0.5992451999999986
  0.5308616000000015  0.4293576333333320  0.6574187333333299
  0.4492639333333344  0.4374532666666653  0.6519565999999983
  0.4139090999999979  0.4809836666666669  0.5931862333333342
  0.2973936666666646  0.5134090333333319  0.4328761666666665
  0.2312167333333335  0.4729643666666661  0.4555207000000010
  0.2545312000000024  0.4550468333333342  0.4023011333333315
  0.2624738333333312  0.4219644666666653  0.4507990333333325
  0.3357031000000035  0.4210491666666698  0.4376531999999997
  0.3481812333333352  0.4646631999999968  0.3960475333333306
  0.3706849000000005  0.4661463666666634  0.4514660666666686
  0.2668472333333298  0.5600402333333321  0.5072570666666678
  0.2263463999999971  0.5427005666666673  0.5837588666666633
  0.2483122666666659  0.4883969999999991  0.5782985666666676
  0.2122367666666634  0.5100999333333363  0.5352457666666695
  0.3416289333333324  0.5567117666666661  0.5661263333333366
  0.2929501999999999  0.5603097333333338  0.6004675333333367
  0.3024500666666654  0.6013443000000009  0.5593489999999974
  0.3281655999999984  0.4141996333333324  0.5273005333333316
  0.3265353999999974  0.4813937333333342  0.5939556000000010
  0.3504480333333362  0.4272284666666692  0.5971462666666696
  0.2941926666666674  0.4341048666666651  0.6146928000000003
  0.2317204333333365  0.4355983000000023  0.5228662999999969
  0.2482319666666655  0.4053757333333365  0.5730326666666699
  0.2613589666666698  0.3847398999999996  0.5197718333333299
  0.4040843333333299  0.6246330000000029  0.5199643999999992
  0.3257373000000001  0.6424006666666671  0.4964629999999985
  0.2950480666666664  0.6111072666666644  0.4279293999999965
  0.3391396333333319  0.5626931999999982  0.3822343666666654
  0.4167911999999987  0.5444535999999971  0.4047616333333366
  0.4360585666666665  0.6322109666666691  0.4105437999999992
  0.4827515666666642  0.6768341333333368  0.3615075666666669
  0.5663563999999965  0.6696878333333345  0.3666135666666648
  0.5997625333333332  0.6196228333333309  0.4193959666666700
  0.6215642333333307  0.5430806000000032  0.4155993999999978
  0.7018307666666672  0.5534925666666695  0.4257006666666641
  0.7323070999999999  0.5838723333333320  0.4954005000000024
  0.6816578333333325  0.6041154333333338  0.5542361666666693
  0.6001017666666684  0.5950752666666688  0.5454784000000004
  0.7093458000000012  0.5050771000000012  0.5536975333333345
  0.7784983999999966  0.4460124000000008  0.5085511999999994
  0.7852325666666644  0.5021788000000029  0.5336790666666644
  0.7531521333333302  0.4949753666666652  0.4851079666666678
  0.7654785333333365  0.4359516000000028  0.5854207333333363
  0.7236191666666656  0.4672362666666672  0.6160915666666682
  0.7075229000000007  0.4171834333333351  0.5885598666666638
  0.6562220666666647  0.3843363000000011  0.5605509999999967
  0.6368596666666662  0.3512237666666636  0.4663393666666664
  0.6059662666666696  0.3949515999999988  0.4925377333333358
  0.6094699333333367  0.3410338999999993  0.5177113666666671
  0.7388225666666699  0.3757546000000005  0.5084911333333366
  0.7015119333333359  0.3272051666666655  0.4979897333333341
  0.7184111333333334  0.3435766999999998  0.5531541333333365
  0.6774588666666688  0.4436774666666636  0.5085088333333303
  0.3114448666666689  0.4914666000000025  0.5091188666666682
 
  0.00000000E+00  0.00000000E+00  0.00000000E+00
  0.00000000E+00  0.00000000E+00  0.00000000E+00
  0.00000000E+00  0.00000000E+00  0.00000000E+00
  0.00000000E+00  0.00000000E+00  0.00000000E+00
  0.00000000E+00  0.00000000E+00  0.00000000E+00
  0.00000000E+00  0.00000000E+00  0.00000000E+00
  0.00000000E+00  0.00000000E+00  0.00000000E+00
  0.00000000E+00  0.00000000E+00  0.00000000E+00
  0.00000000E+00  0.00000000E+00  0.00000000E+00
  0.00000000E+00  0.00000000E+00  0.00000000E+00
  0.00000000E+00  0.00000000E+00  0.00000000E+00
  0.00000000E+00  0.00000000E+00  0.00000000E+00
  0.00000000E+00  0.00000000E+00  0.00000000E+00
  0.00000000E+00  0.00000000E+00  0.00000000E+00
  0.00000000E+00  0.00000000E+00  0.00000000E+00
  0.00000000E+00  0.00000000E+00  0.00000000E+00
  0.00000000E+00  0.00000000E+00  0.00000000E+00
  0.00000000E+00  0.00000000E+00  0.00000000E+00
  0.00000000E+00  0.00000000E+00  0.00000000E+00
  0.00000000E+00  0.00000000E+00  0.00000000E+00
  0.00000000E+00  0.00000000E+00  0.00000000E+00
  0.00000000E+00  0.00000000E+00  0.00000000E+00
  0.00000000E+00  0.00000000E+00  0.00000000E+00
  0.00000000E+00  0.00000000E+00  0.00000000E+00
  0.00000000E+00  0.00000000E+00  0.00000000E+00
  0.00000000E+00  0.00000000E+00  0.00000000E+00
  0.00000000E+00  0.00000000E+00  0.00000000E+00
  0.00000000E+00  0.00000000E+00  0.00000000E+00
  0.00000000E+00  0.00000000E+00  0.00000000E+00
  0.00000000E+00  0.00000000E+00  0.00000000E+00
  0.00000000E+00  0.00000000E+00  0.00000000E+00
  0.00000000E+00  0.00000000E+00  0.00000000E+00
  0.00000000E+00  0.00000000E+00  0.00000000E+00
  0.00000000E+00  0.00000000E+00  0.00000000E+00
  0.00000000E+00  0.00000000E+00  0.00000000E+00
  0.00000000E+00  0.00000000E+00  0.00000000E+00
  0.00000000E+00  0.00000000E+00  0.00000000E+00
  0.00000000E+00  0.00000000E+00  0.00000000E+00
  0.00000000E+00  0.00000000E+00  0.00000000E+00
  0.00000000E+00  0.00000000E+00  0.00000000E+00
  0.00000000E+00  0.00000000E+00  0.00000000E+00
  0.00000000E+00  0.00000000E+00  0.00000000E+00
  0.00000000E+00  0.00000000E+00  0.00000000E+00
  0.00000000E+00  0.00000000E+00  0.00000000E+00
  0.00000000E+00  0.00000000E+00  0.00000000E+00
  0.00000000E+00  0.00000000E+00  0.00000000E+00
  0.00000000E+00  0.00000000E+00  0.00000000E+00
  0.00000000E+00  0.00000000E+00  0.00000000E+00
  0.00000000E+00  0.00000000E+00  0.00000000E+00
  0.00000000E+00  0.00000000E+00  0.00000000E+00
  0.00000000E+00  0.00000000E+00  0.00000000E+00
  0.00000000E+00  0.00000000E+00  0.00000000E+00
  0.00000000E+00  0.00000000E+00  0.00000000E+00
  0.00000000E+00  0.00000000E+00  0.00000000E+00
  0.00000000E+00  0.00000000E+00  0.00000000E+00
  0.00000000E+00  0.00000000E+00  0.00000000E+00
  0.00000000E+00  0.00000000E+00  0.00000000E+00
  0.00000000E+00  0.00000000E+00  0.00000000E+00
  0.00000000E+00  0.00000000E+00  0.00000000E+00
  0.00000000E+00  0.00000000E+00  0.00000000E+00
  0.00000000E+00  0.00000000E+00  0.00000000E+00
  0.00000000E+00  0.00000000E+00  0.00000000E+00
  0.00000000E+00  0.00000000E+00  0.00000000E+00
  0.00000000E+00  0.00000000E+00  0.00000000E+00
  0.00000000E+00  0.00000000E+00  0.00000000E+00
  0.00000000E+00  0.00000000E+00  0.00000000E+00
  0.00000000E+00  0.00000000E+00  0.00000000E+00
  0.00000000E+00  0.00000000E+00  0.00000000E+00
  0.00000000E+00  0.00000000E+00  0.00000000E+00
  0.00000000E+00  0.00000000E+00  0.00000000E+00
  0.00000000E+00  0.00000000E+00  0.00000000E+00
  0.00000000E+00  0.00000000E+00  0.00000000E+00
  0.00000000E+00  0.00000000E+00  0.00000000E+00
  0.00000000E+00  0.00000000E+00  0.00000000E+00
  0.00000000E+00  0.00000000E+00  0.00000000E+00
  0.00000000E+00  0.00000000E+00  0.00000000E+00
  0.00000000E+00  0.00000000E+00  0.00000000E+00
  0.00000000E+00  0.00000000E+00  0.00000000E+00
  0.00000000E+00  0.00000000E+00  0.00000000E+00
  0.00000000E+00  0.00000000E+00  0.00000000E+00
  0.00000000E+00  0.00000000E+00  0.00000000E+00
  0.00000000E+00  0.00000000E+00  0.00000000E+00
  0.00000000E+00  0.00000000E+00  0.00000000E+00
  0.00000000E+00  0.00000000E+00  0.00000000E+00
  0.00000000E+00  0.00000000E+00  0.00000000E+00
  0.00000000E+00  0.00000000E+00  0.00000000E+00
  0.00000000E+00  0.00000000E+00  0.00000000E+00
  0.00000000E+00  0.00000000E+00  0.00000000E+00
  0.00000000E+00  0.00000000E+00  0.00000000E+00
  0.00000000E+00  0.00000000E+00  0.00000000E+00
  0.00000000E+00  0.00000000E+00  0.00000000E+00
  0.00000000E+00  0.00000000E+00  0.00000000E+00
  0.00000000E+00  0.00000000E+00  0.00000000E+00
  0.00000000E+00  0.00000000E+00  0.00000000E+00
  0.00000000E+00  0.00000000E+00  0.00000000E+00
  0.00000000E+00  0.00000000E+00  0.00000000E+00
  0.00000000E+00  0.00000000E+00  0.00000000E+00
  0.00000000E+00  0.00000000E+00  0.00000000E+00
  0.00000000E+00  0.00000000E+00  0.00000000E+00
  0.00000000E+00  0.00000000E+00  0.00000000E+00
  0.00000000E+00  0.00000000E+00  0.00000000E+00
  0.00000000E+00  0.00000000E+00  0.00000000E+00
  0.00000000E+00  0.00000000E+00  0.00000000E+00
  0.00000000E+00  0.00000000E+00  0.00000000E+00
  0.00000000E+00  0.00000000E+00  0.00000000E+00
  0.00000000E+00  0.00000000E+00  0.00000000E+00
  0.00000000E+00  0.00000000E+00  0.00000000E+00
  0.00000000E+00  0.00000000E+00  0.00000000E+00
  0.00000000E+00  0.00000000E+00  0.00000000E+00
  0.00000000E+00  0.00000000E+00  0.00000000E+00
  0.00000000E+00  0.00000000E+00  0.00000000E+00
  0.00000000E+00  0.00000000E+00  0.00000000E+00
  0.00000000E+00  0.00000000E+00  0.00000000E+00
  0.00000000E+00  0.00000000E+00  0.00000000E+00
