       N       E                     dE             d eps       ncg     rms          ort
SDA:   1    -0.835892861170E+03   -0.83589E+03    0.00000E+00   196   0.153E+01 0.000E+00
CGA:   2    -0.836547816460E+03   -0.65496E+00   -0.65357E+00   196   0.356E+00 0.792E-02
CGA:   3    -0.836650501934E+03   -0.10269E+00   -0.10257E+00   196   0.103E+00 0.896E-03
CGA:   4    -0.836677935675E+03   -0.27434E-01   -0.27419E-01   196   0.330E-01 0.145E-03
CGA:   5    -0.836687250398E+03   -0.93147E-02   -0.93085E-02   196   0.139E-01 0.471E-04
CGA:   6    -0.836690964521E+03   -0.37141E-02   -0.37125E-02   196   0.500E-02 0.286E-04
CGA:   7    -0.836692526890E+03   -0.15624E-02   -0.15612E-02   196   0.206E-02 0.121E-04
CGA:   8    -0.836693054544E+03   -0.52765E-03   -0.52743E-03   196   0.778E-03 0.122E-04
CGA:   9    -0.836693244298E+03   -0.18975E-03   -0.18974E-03   196   0.224E-03 0.118E-04
CGA:  10    -0.836693303311E+03   -0.59012E-04   -0.59095E-04   196   0.771E-04 0.255E-05
CGA:  11    -0.836693323214E+03   -0.19903E-04   -0.20040E-04   196   0.326E-04 0.844E-06
CGA:  12    -0.836693331642E+03   -0.84282E-05   -0.85854E-05   196   0.138E-04 0.893E-07
CGA:  13    -0.836693335461E+03   -0.38197E-05   -0.40613E-05   196   0.684E-05-0.106E-05
CGA:  14    -0.836693337082E+03   -0.16208E-05   -0.18706E-05   196   0.413E-05-0.122E-05
CGA:  15    -0.836693337815E+03   -0.73240E-06   -0.92177E-06   196   0.228E-05-0.916E-06
   1 F= -.83989344E+03 E0= -.83989344E+03  d E =-.118243E-15
