Molecule_POSCAR_02                      
   1.00000000000000     
    30.0000000000000000    0.0000000000000000    0.0000000000000000
     0.0000000000000000   30.0000000000000000    0.0000000000000000
     0.0000000000000000    0.0000000000000000   30.0000000000000000
   C    H    O    P 
    49    72     1     2
Direct
  0.2526210999999989  0.5727863333333332  0.4582698666666687
  0.2792802000000023  0.5811445333333367  0.5001584999999977
  0.2504407666666637  0.5698519333333323  0.5394489666666686
  0.2904097333333340  0.6309391666666642  0.5009518333333318
  0.3217495333333318  0.5552119333333323  0.5004563333333323
  0.3380518666666674  0.5414590666666683  0.4604872000000029
  0.3784016999999977  0.5165870666666663  0.4573430000000016
  0.3915394333333353  0.5022804333333326  0.4124768333333364
  0.3559266999999977  0.5229113333333331  0.3793626000000003
  0.3837228666666661  0.4532214999999979  0.4027901666666693
  0.4329998333333336  0.5216534333333342  0.3935863999999967
  0.4020229666666637  0.5059393000000014  0.4957594999999984
  0.4458069000000009  0.4856638333333336  0.4926735333333312
  0.5458908333333312  0.4922946000000010  0.4965259000000017
  0.5896399333333306  0.5135829333333319  0.5011040999999992
  0.6116787666666639  0.5265114333333329  0.4634721666666692
  0.5961554666666657  0.5243370999999968  0.4174088999999981
  0.6319429999999997  0.5450258666666699  0.3857523666666651
  0.5555271666666641  0.5521371999999971  0.4067179666666689
  0.5930304000000035  0.4780721333333346  0.3974625666666682
  0.6545569000000029  0.5454671666666684  0.4688937000000024
  0.6737601666666677  0.5510598333333334  0.5092106666666680
  0.7193582666666671  0.5714752666666669  0.5130013333333352
  0.7206343333333365  0.6146923000000015  0.4877283333333366
  0.7314194666666651  0.5813945666666669  0.5606792333333317
  0.7515450333333362  0.5371341666666680  0.4959600666666688
  0.6504469999999998  0.5377712333333307  0.5462054999999992
  0.6075122666666672  0.5185555999999991  0.5441426666666658
  0.5866416333333362  0.5118336333333318  0.5862918666666701
  0.5652851999999982  0.4700947333333332  0.6008991666666645
  0.5583699666666675  0.5516222999999982  0.6000490666666636
  0.6248062666666669  0.5147341666666634  0.6224984666666700
  0.5349720999999974  0.4503726333333304  0.4882982666666678
  0.5665249999999986  0.4136119333333355  0.4825558000000001
  0.6021505000000005  0.4046109000000015  0.5091417666666658
  0.6305958000000018  0.3686738999999974  0.5001092999999983
  0.6240786666666693  0.3412124000000034  0.4646321333333319
  0.5886551666666691  0.3493900666666647  0.4373083999999992
  0.5605011333333323  0.3854094333333364  0.4466730999999982
  0.4583314333333348  0.3901454333333305  0.5093922333333367
  0.4817603333333338  0.3796409666666634  0.5524241666666683
  0.4678467333333316  0.3486563666666669  0.4797595666666652
  0.4075630999999973  0.3889238000000006  0.5141370999999992
  0.3850923333333327  0.5199411999999981  0.5370771666666698
  0.4029681000000025  0.5074357666666671  0.5800090333333330
  0.3752015999999969  0.5334625666666639  0.6164526000000023
  0.4490866333333301  0.5152598000000026  0.5940942666666658
  0.3897102000000032  0.4591880333333336  0.5939780666666650
  0.3444956333333309  0.5447823666666665  0.5374406333333326
  0.2175243000000009  0.5821753000000029  0.4645847000000032
  0.2639932333333306  0.5923578000000020  0.4298286000000004
  0.2516838666666672  0.5357417333333316  0.4517574666666633
  0.2550068333333328  0.5348576333333313  0.5507793333333311
  0.2591382333333314  0.5923441999999994  0.5683206666666649
  0.2142229666666680  0.5734215666666671  0.5326409333333331
  0.3178217999999973  0.6381656000000007  0.5248142000000016
  0.3006045666666637  0.6406372666666655  0.4665903000000000
  0.2594718333333361  0.6488785666666672  0.5092874333333341
  0.3193760666666634  0.5499236666666647  0.4305376666666660
  0.3568422666666677  0.5585602666666674  0.3795051666666680
  0.3246745000000004  0.5053356666666673  0.3849263999999977
  0.3696808666666698  0.5122491999999994  0.3456454000000022
  0.3854338000000013  0.4313903999999980  0.4319828333333362
  0.4054144666666701  0.4429901333333319  0.3744399999999999
  0.3490259000000009  0.4464701333333352  0.3892301666666640
  0.4570391333333319  0.4959342000000007  0.3839564666666675
  0.4270874333333339  0.5399763333333354  0.3602069333333304
  0.4487471333333346  0.5475969000000021  0.4137376333333336
  0.6358019333333331  0.5805131666666696  0.3909463999999971
  0.6149330000000006  0.5421952000000019  0.3520658333333344
  0.6613617333333366  0.5242461666666642  0.3830027666666638
  0.5524508666666677  0.5785641000000012  0.4316585666666697
  0.5255737999999965  0.5311566000000028  0.4022762333333318
  0.5586704999999981  0.5693204666666674  0.3737057333333311
  0.6035852333333338  0.4759328333333315  0.3619998333333356
  0.6169572666666667  0.4572730333333368  0.4158956666666640
  0.5580999000000020  0.4667921666666643  0.3974819999999966
  0.6741528666666667  0.5563599666666690  0.4402814000000035
  0.7515563333333333  0.6146387333333365  0.4668478333333326
  0.6920818333333330  0.6189176666666683  0.4641244000000029
  0.7204436666666680  0.6437965666666656  0.5102450999999988
  0.7421584666666661  0.5520128000000000  0.5800052000000022
  0.7610320000000002  0.6042680999999988  0.5597873333333325
  0.7043761666666697  0.6011025999999973  0.5773227333333324
  0.7512018666666691  0.5342957333333302  0.4592071666666655
  0.7391502333333335  0.5038412999999977  0.5085624999999965
  0.7863525666666646  0.5428362666666686  0.5067005000000009
  0.6683881666666665  0.5435432000000020  0.5769700666666679
  0.5431752333333364  0.4795805666666695  0.6301583999999991
  0.5881175999999968  0.4449737333333346  0.6159847666666636
  0.5429172333333341  0.4573233999999999  0.5763244333333333
  0.5796246999999966  0.5770999333333364  0.6189486999999971
  0.5349567000000022  0.5398859666666667  0.6261144666666638
  0.5446220999999980  0.5710063666666656  0.5730543000000026
  0.6118844333333300  0.5006863999999993  0.6545100666666670
  0.6334895000000031  0.5487982666666653  0.6294448333333307
  0.6519983333333315  0.4927065333333331  0.6124786666666679
  0.6094134333333301  0.4245998333333318  0.5370703999999975
  0.6591183666666680  0.3619100666666668  0.5219880666666654
  0.6453768000000011  0.3131697999999972  0.4567527666666678
  0.5829948000000016  0.3278730666666689  0.4090154000000013
  0.5343684666666633  0.3892344333333355  0.4223867999999982
  0.4592742999999970  0.3545972333333367  0.5698246666666691
  0.5126532999999966  0.3591685333333317  0.5461327666666662
  0.4867425999999995  0.4068013333333340  0.5752651999999969
  0.4402604333333358  0.3235310999999967  0.4840690666666632
  0.4979851333333301  0.3314397333333332  0.4893231666666651
  0.4674015333333301  0.3581479333333348  0.4445023999999975
  0.3981770333333330  0.3751273000000026  0.5466143333333306
  0.3913068333333314  0.3673280666666656  0.4888023666666683
  0.3962576333333345  0.4226864666666685  0.5075491333333346
  0.3418494000000010  0.5189847666666694  0.6184633333333309
  0.3778841999999969  0.5689886666666695  0.6096673333333342
  0.3935265666666652  0.5285933999999983  0.6489948999999982
  0.4611762333333331  0.5491792666666697  0.5911280666666698
  0.4724123666666671  0.4875630000000015  0.5878133666666656
  0.4476614333333302  0.5123259000000004  0.6334267333333301
  0.4188746666666674  0.4379230666666700  0.5945218666666676
  0.3616169333333303  0.4497255666666646  0.5732104333333368
  0.3770316666666673  0.4597927666666664  0.6288642666666675
  0.3306541666666689  0.5561821666666660  0.5686528000000024
  0.4747022666666680  0.4269845666666683  0.4317409666666663
  0.4919596000000013  0.5261776999999981  0.5013581666666695
  0.4767060000000001  0.4411263000000005  0.4827307999999988
 
  0.00000000E+00  0.00000000E+00  0.00000000E+00
  0.00000000E+00  0.00000000E+00  0.00000000E+00
  0.00000000E+00  0.00000000E+00  0.00000000E+00
  0.00000000E+00  0.00000000E+00  0.00000000E+00
  0.00000000E+00  0.00000000E+00  0.00000000E+00
  0.00000000E+00  0.00000000E+00  0.00000000E+00
  0.00000000E+00  0.00000000E+00  0.00000000E+00
  0.00000000E+00  0.00000000E+00  0.00000000E+00
  0.00000000E+00  0.00000000E+00  0.00000000E+00
  0.00000000E+00  0.00000000E+00  0.00000000E+00
  0.00000000E+00  0.00000000E+00  0.00000000E+00
  0.00000000E+00  0.00000000E+00  0.00000000E+00
  0.00000000E+00  0.00000000E+00  0.00000000E+00
  0.00000000E+00  0.00000000E+00  0.00000000E+00
  0.00000000E+00  0.00000000E+00  0.00000000E+00
  0.00000000E+00  0.00000000E+00  0.00000000E+00
  0.00000000E+00  0.00000000E+00  0.00000000E+00
  0.00000000E+00  0.00000000E+00  0.00000000E+00
  0.00000000E+00  0.00000000E+00  0.00000000E+00
  0.00000000E+00  0.00000000E+00  0.00000000E+00
  0.00000000E+00  0.00000000E+00  0.00000000E+00
  0.00000000E+00  0.00000000E+00  0.00000000E+00
  0.00000000E+00  0.00000000E+00  0.00000000E+00
  0.00000000E+00  0.00000000E+00  0.00000000E+00
  0.00000000E+00  0.00000000E+00  0.00000000E+00
  0.00000000E+00  0.00000000E+00  0.00000000E+00
  0.00000000E+00  0.00000000E+00  0.00000000E+00
  0.00000000E+00  0.00000000E+00  0.00000000E+00
  0.00000000E+00  0.00000000E+00  0.00000000E+00
  0.00000000E+00  0.00000000E+00  0.00000000E+00
  0.00000000E+00  0.00000000E+00  0.00000000E+00
  0.00000000E+00  0.00000000E+00  0.00000000E+00
  0.00000000E+00  0.00000000E+00  0.00000000E+00
  0.00000000E+00  0.00000000E+00  0.00000000E+00
  0.00000000E+00  0.00000000E+00  0.00000000E+00
  0.00000000E+00  0.00000000E+00  0.00000000E+00
  0.00000000E+00  0.00000000E+00  0.00000000E+00
  0.00000000E+00  0.00000000E+00  0.00000000E+00
  0.00000000E+00  0.00000000E+00  0.00000000E+00
  0.00000000E+00  0.00000000E+00  0.00000000E+00
  0.00000000E+00  0.00000000E+00  0.00000000E+00
  0.00000000E+00  0.00000000E+00  0.00000000E+00
  0.00000000E+00  0.00000000E+00  0.00000000E+00
  0.00000000E+00  0.00000000E+00  0.00000000E+00
  0.00000000E+00  0.00000000E+00  0.00000000E+00
  0.00000000E+00  0.00000000E+00  0.00000000E+00
  0.00000000E+00  0.00000000E+00  0.00000000E+00
  0.00000000E+00  0.00000000E+00  0.00000000E+00
  0.00000000E+00  0.00000000E+00  0.00000000E+00
  0.00000000E+00  0.00000000E+00  0.00000000E+00
  0.00000000E+00  0.00000000E+00  0.00000000E+00
  0.00000000E+00  0.00000000E+00  0.00000000E+00
  0.00000000E+00  0.00000000E+00  0.00000000E+00
  0.00000000E+00  0.00000000E+00  0.00000000E+00
  0.00000000E+00  0.00000000E+00  0.00000000E+00
  0.00000000E+00  0.00000000E+00  0.00000000E+00
  0.00000000E+00  0.00000000E+00  0.00000000E+00
  0.00000000E+00  0.00000000E+00  0.00000000E+00
  0.00000000E+00  0.00000000E+00  0.00000000E+00
  0.00000000E+00  0.00000000E+00  0.00000000E+00
  0.00000000E+00  0.00000000E+00  0.00000000E+00
  0.00000000E+00  0.00000000E+00  0.00000000E+00
  0.00000000E+00  0.00000000E+00  0.00000000E+00
  0.00000000E+00  0.00000000E+00  0.00000000E+00
  0.00000000E+00  0.00000000E+00  0.00000000E+00
  0.00000000E+00  0.00000000E+00  0.00000000E+00
  0.00000000E+00  0.00000000E+00  0.00000000E+00
  0.00000000E+00  0.00000000E+00  0.00000000E+00
  0.00000000E+00  0.00000000E+00  0.00000000E+00
  0.00000000E+00  0.00000000E+00  0.00000000E+00
  0.00000000E+00  0.00000000E+00  0.00000000E+00
  0.00000000E+00  0.00000000E+00  0.00000000E+00
  0.00000000E+00  0.00000000E+00  0.00000000E+00
  0.00000000E+00  0.00000000E+00  0.00000000E+00
  0.00000000E+00  0.00000000E+00  0.00000000E+00
  0.00000000E+00  0.00000000E+00  0.00000000E+00
  0.00000000E+00  0.00000000E+00  0.00000000E+00
  0.00000000E+00  0.00000000E+00  0.00000000E+00
  0.00000000E+00  0.00000000E+00  0.00000000E+00
  0.00000000E+00  0.00000000E+00  0.00000000E+00
  0.00000000E+00  0.00000000E+00  0.00000000E+00
  0.00000000E+00  0.00000000E+00  0.00000000E+00
  0.00000000E+00  0.00000000E+00  0.00000000E+00
  0.00000000E+00  0.00000000E+00  0.00000000E+00
  0.00000000E+00  0.00000000E+00  0.00000000E+00
  0.00000000E+00  0.00000000E+00  0.00000000E+00
  0.00000000E+00  0.00000000E+00  0.00000000E+00
  0.00000000E+00  0.00000000E+00  0.00000000E+00
  0.00000000E+00  0.00000000E+00  0.00000000E+00
  0.00000000E+00  0.00000000E+00  0.00000000E+00
  0.00000000E+00  0.00000000E+00  0.00000000E+00
  0.00000000E+00  0.00000000E+00  0.00000000E+00
  0.00000000E+00  0.00000000E+00  0.00000000E+00
  0.00000000E+00  0.00000000E+00  0.00000000E+00
  0.00000000E+00  0.00000000E+00  0.00000000E+00
  0.00000000E+00  0.00000000E+00  0.00000000E+00
  0.00000000E+00  0.00000000E+00  0.00000000E+00
  0.00000000E+00  0.00000000E+00  0.00000000E+00
  0.00000000E+00  0.00000000E+00  0.00000000E+00
  0.00000000E+00  0.00000000E+00  0.00000000E+00
  0.00000000E+00  0.00000000E+00  0.00000000E+00
  0.00000000E+00  0.00000000E+00  0.00000000E+00
  0.00000000E+00  0.00000000E+00  0.00000000E+00
  0.00000000E+00  0.00000000E+00  0.00000000E+00
  0.00000000E+00  0.00000000E+00  0.00000000E+00
  0.00000000E+00  0.00000000E+00  0.00000000E+00
  0.00000000E+00  0.00000000E+00  0.00000000E+00
  0.00000000E+00  0.00000000E+00  0.00000000E+00
  0.00000000E+00  0.00000000E+00  0.00000000E+00
  0.00000000E+00  0.00000000E+00  0.00000000E+00
  0.00000000E+00  0.00000000E+00  0.00000000E+00
  0.00000000E+00  0.00000000E+00  0.00000000E+00
  0.00000000E+00  0.00000000E+00  0.00000000E+00
  0.00000000E+00  0.00000000E+00  0.00000000E+00
  0.00000000E+00  0.00000000E+00  0.00000000E+00
  0.00000000E+00  0.00000000E+00  0.00000000E+00
  0.00000000E+00  0.00000000E+00  0.00000000E+00
  0.00000000E+00  0.00000000E+00  0.00000000E+00
  0.00000000E+00  0.00000000E+00  0.00000000E+00
  0.00000000E+00  0.00000000E+00  0.00000000E+00
  0.00000000E+00  0.00000000E+00  0.00000000E+00
  0.00000000E+00  0.00000000E+00  0.00000000E+00
  0.00000000E+00  0.00000000E+00  0.00000000E+00
  0.00000000E+00  0.00000000E+00  0.00000000E+00
