       N       E                     dE             d eps       ncg     rms          ort
SDA:   1    -0.865715374286E+03   -0.86572E+03    0.00000E+00   208   0.160E+01 0.000E+00
CGA:   2    -0.866401270309E+03   -0.68590E+00   -0.67523E+00   208   0.434E+00 0.470E-01
CGA:   3    -0.866510931529E+03   -0.10966E+00   -0.10965E+00   208   0.134E+00-0.281E-06
CGA:   4    -0.866548950697E+03   -0.38019E-01   -0.37891E-01   208   0.370E-01 0.123E-02
CGA:   5    -0.866560972984E+03   -0.12022E-01   -0.12003E-01   208   0.182E-01 0.141E-03
CGA:   6    -0.866565822394E+03   -0.48494E-02   -0.48469E-02   208   0.696E-02 0.444E-04
CGA:   7    -0.866567834298E+03   -0.20119E-02   -0.20102E-02   208   0.247E-02 0.240E-04
CGA:   8    -0.866568515437E+03   -0.68114E-03   -0.68099E-03   208   0.896E-03 0.562E-05
CGA:   9    -0.866568749235E+03   -0.23380E-03   -0.23360E-03   208   0.276E-03 0.113E-04
CGA:  10    -0.866568817710E+03   -0.68476E-04   -0.68529E-04   208   0.876E-04 0.647E-05
CGA:  11    -0.866568841399E+03   -0.23689E-04   -0.23827E-04   208   0.322E-04 0.497E-06
CGA:  12    -0.866568851065E+03   -0.96663E-05   -0.98888E-05   208   0.157E-04-0.615E-06
CGA:  13    -0.866568854986E+03   -0.39207E-05   -0.40834E-05   208   0.777E-05-0.380E-06
CGA:  14    -0.866568856779E+03   -0.17933E-05   -0.19548E-05   208   0.388E-05-0.778E-06
CGA:  15    -0.866568857584E+03   -0.80463E-06   -0.10559E-05   208   0.303E-05-0.126E-05
   1 F= -.87022825E+03 E0= -.87022825E+03  d E =-.357577E-12
