Molecule_POSCAR_02
1.0
30.000000 0.000000 0.000000
0.000000 30.000000 0.000000
0.000000 0.000000 30.000000
C H O P
49 72 1 2
Cartesian
7.578633 17.183590 13.748096
8.378406 17.434336 15.004755
7.513223 17.095558 16.183469
8.712292 18.928175 15.028555
9.652486 16.656358 15.013690
10.141556 16.243772 13.814616
11.352051 15.497612 13.720290
11.746183 15.068413 12.374305
10.677801 15.687340 11.380878
11.511686 13.596645 12.083705
12.989995 15.649603 11.807592
12.060689 15.178179 14.872785
13.374207 14.569915 14.780206
16.376725 14.768838 14.895777
17.689198 15.407488 15.033123
18.350363 15.795343 13.904165
17.884664 15.730113 12.522267
18.958290 16.350776 11.572571
16.665815 16.564116 12.201539
17.790912 14.342164 11.923877
19.636707 16.364015 14.066811
20.212805 16.531795 15.276320
21.580748 17.144258 15.390040
21.619030 18.440769 14.631850
21.942584 17.441837 16.820377
22.546351 16.114025 14.878802
19.513410 16.133137 16.386165
18.225368 15.556668 16.324280
17.599249 15.355009 17.588756
16.958556 14.102842 18.026975
16.751099 16.548669 18.001472
18.744188 15.442025 18.674954
16.049163 13.511179 14.648948
16.995750 12.408358 14.476674
18.064515 12.138327 15.274253
18.917874 11.060217 15.003279
18.722360 10.236372 13.938964
17.659655 10.481702 13.119252
16.815034 11.562283 13.400193
13.749943 11.704363 15.281767
14.452810 11.389229 16.572725
14.035402 10.459691 14.392787
12.226893 11.667714 15.424113
11.552770 15.598236 16.112315
12.089043 15.223073 17.400271
11.256048 16.003877 18.493578
13.472599 15.457794 17.822828
11.691306 13.775641 17.819342
10.334869 16.343471 16.123219
6.525729 17.465259 13.937541
7.919797 17.770734 12.894858
7.550516 16.072252 13.552724
7.650205 16.045729 16.523380
7.774147 17.770326 17.049620
6.426689 17.202647 15.979228
9.534654 19.144968 15.744426
9.018137 19.219118 13.997709
7.784155 19.466357 15.278623
9.581282 16.497710 12.916130
10.705268 16.756808 11.385155
9.740235 15.160070 11.547792
11.090426 15.367476 10.369362
11.563014 12.941712 12.959485
12.162434 13.289704 11.233200
10.470777 13.394104 11.676905
13.711174 14.878026 11.518694
12.812623 16.199290 10.806208
13.462414 16.427907 12.412129
19.074058 17.415395 11.728392
18.447990 16.265856 10.561975
19.840852 15.727385 11.490083
16.573526 17.356923 12.949757
15.767214 15.934698 12.068287
16.760115 17.079614 11.211172
18.107557 14.277985 10.859995
18.508718 13.718191 12.476870
16.742997 14.003765 11.924460
20.224586 16.690799 13.208442
22.546690 18.439162 14.005435
20.762455 18.567530 13.923732
21.613310 19.313897 15.307353
22.264754 16.560384 17.400156
22.830960 18.128043 16.793620
21.131285 18.033078 17.319682
22.536056 16.028872 13.776215
22.174507 15.115239 15.256875
23.590577 16.285088 15.201015
20.051645 16.306296 17.309102
16.295257 14.387417 18.904752
17.643528 13.349212 18.479543
16.287517 13.719702 17.289733
17.388741 17.312998 18.568461
16.048701 16.196579 18.783434
16.338663 17.130191 17.191629
18.356533 15.020592 19.635302
19.004685 16.463948 18.883345
19.559950 14.781196 18.374360
18.282403 12.737995 16.112112
19.773551 10.857302 15.659642
19.361304 9.395094 13.702583
17.489844 9.836192 12.270462
16.031054 11.677033 12.671604
13.778229 10.637917 17.094740
15.379599 10.775056 16.383983
14.602278 12.204040 17.257956
13.207813 9.705933 14.522072
14.939554 9.943192 14.679695
14.022046 10.744438 13.335072
11.945311 11.253819 16.398430
11.739205 11.019842 14.664071
11.887729 12.680594 15.226474
10.255482 15.569543 18.553900
11.336526 17.069660 18.290020
11.805797 15.857802 19.469847
13.835287 16.475378 17.733842
14.172371 14.626890 17.634401
13.429843 15.369777 19.002802
12.566240 13.137692 17.835656
10.848508 13.491767 17.196313
11.310950 13.793783 18.865928
9.919625 16.685465 17.059584
14.241068 12.809537 12.952229
14.758788 15.785331 15.040745
14.301180 13.233789 14.481924
