Molecule_POSCAR_10                      
   1.00000000000000     
    20.0000000000000000    0.0000000000000000    0.0000000000000000
     0.0000000000000000   20.0000000000000000    0.0000000000000000
     0.0000000000000000    0.0000000000000000   20.0000000000000000
   C    H    N 
     8    15     1
Direct
  0.6581487500000023  0.4977702999999991  0.5583150499999974
  0.6049361500000003  0.5055110500000026  0.5047352500000031
  0.5379518000000019  0.5006326999999970  0.5387046000000026
  0.4804957500000029  0.5080335500000004  0.4888372500000031
  0.4884486999999993  0.4518610000000010  0.4390150999999989
  0.4140759499999973  0.5008625999999978  0.5239379499999970
  0.3560100500000019  0.5079214499999978  0.4769873999999987
  0.3577428500000011  0.5741512000000029  0.4450483999999975
  0.6607510500000018  0.4450884999999971  0.5720754000000028
  0.6439922499999966  0.5258066499999998  0.6045162500000032
  0.7051081500000009  0.5186743000000007  0.5374960999999985
  0.6130635499999997  0.5525720500000020  0.4779489499999983
  0.6109542499999989  0.4605134999999976  0.4721453000000011
  0.5325567499999977  0.5378962500000029  0.5793879000000004
  0.5360573999999971  0.4507929000000033  0.5634563500000027
  0.4858084000000034  0.5574518000000026  0.4647258500000007
  0.5331849000000020  0.4623966500000023  0.4070224999999965
  0.4464971499999990  0.4479904000000019  0.4033282500000013
  0.4966398999999981  0.4044810500000011  0.4671128999999965
  0.4081651999999991  0.5392878999999979  0.5638229500000023
  0.4094304999999991  0.4519880499999971  0.5491699999999966
  0.3537891000000002  0.4700972500000020  0.4368149499999987
  0.3073490499999991  0.5009973000000016  0.5048778000000027
  0.3588424499999974  0.6272215999999986  0.4205175999999966
 
  0.00000000E+00  0.00000000E+00  0.00000000E+00
  0.00000000E+00  0.00000000E+00  0.00000000E+00
  0.00000000E+00  0.00000000E+00  0.00000000E+00
  0.00000000E+00  0.00000000E+00  0.00000000E+00
  0.00000000E+00  0.00000000E+00  0.00000000E+00
  0.00000000E+00  0.00000000E+00  0.00000000E+00
  0.00000000E+00  0.00000000E+00  0.00000000E+00
  0.00000000E+00  0.00000000E+00  0.00000000E+00
  0.00000000E+00  0.00000000E+00  0.00000000E+00
  0.00000000E+00  0.00000000E+00  0.00000000E+00
  0.00000000E+00  0.00000000E+00  0.00000000E+00
  0.00000000E+00  0.00000000E+00  0.00000000E+00
  0.00000000E+00  0.00000000E+00  0.00000000E+00
  0.00000000E+00  0.00000000E+00  0.00000000E+00
  0.00000000E+00  0.00000000E+00  0.00000000E+00
  0.00000000E+00  0.00000000E+00  0.00000000E+00
  0.00000000E+00  0.00000000E+00  0.00000000E+00
  0.00000000E+00  0.00000000E+00  0.00000000E+00
  0.00000000E+00  0.00000000E+00  0.00000000E+00
  0.00000000E+00  0.00000000E+00  0.00000000E+00
  0.00000000E+00  0.00000000E+00  0.00000000E+00
  0.00000000E+00  0.00000000E+00  0.00000000E+00
  0.00000000E+00  0.00000000E+00  0.00000000E+00
  0.00000000E+00  0.00000000E+00  0.00000000E+00
