 vasp.6.4.2 20Jul23 (build Mar 28 2025 16:44:38) complex                        
  
 executed on             LinuxIFC date 2026.02.17  14:51:41
 running   32 mpi-ranks, on    1 nodes
 distrk:  each k-point on   32 cores,    1 groups
 distr:  one band on NCORE=   4 cores,    8 groups


--------------------------------------------------------------------------------------------------------


 INCAR:
   SYSTEM = QM9_Benchmark_B3LYP_Gap_Dipole
   PREC = Accurate
   ENCUT = 500
   EDIFF = 1E-6
   ISMEAR = 0
   SIGMA = 0.05
   NELM = 100
   IBRION = -1
   NSW = 0
   LHFCALC = .TRUE.
   GGA = B3
   AEXX = 0.20
   AGGAX = 0.72
   AGGAC = 0.81
   ALDAC = 0.19
   ALGO = Damped
   TIME = 0.4
   LDIPOL = .TRUE.
   IDIPOL = 4
   DIPOL = 0.5 0.5 0.5
   LORBIT = 11
   NEDOS = 2000
   ISYM = 0
   LREAL = .FALSE.
   NCORE = 4

 POTCAR:    PAW_PBE C 08Apr2002                   
 POTCAR:    PAW_PBE H 15Jun2001                   
 POTCAR:    PAW_PBE N 08Apr2002                   
 POTCAR:    PAW_PBE C 08Apr2002                   
   VRHFIN =C: s2p2                                                                                  
   LEXCH  = PE                                                                                      
   EATOM  =   147.1560 eV,   10.8157 Ry                                                             
                                                                                                    
   TITEL  = PAW_PBE C 08Apr2002                                                                     
   LULTRA =        F    use ultrasoft PP ?                                                          
   IUNSCR =        1    unscreen: 0-lin 1-nonlin 2-no                                               
   RPACOR =    1.200    partial core radius                                                         
   POMASS =   12.011; ZVAL   =    4.000    mass and valenz                                          
   RCORE  =    1.500    outmost cutoff radius                                                       
   RWIGS  =    1.630; RWIGS  =    0.863    wigner-seitz radius (au A)                               
   ENMAX  =  400.000; ENMIN  =  300.000 eV                                                          
   ICORE  =        2    local potential                                                             
   LCOR   =        T    correct aug charges                                                         
   LPAW   =        T    paw PP                                                                      
   EAUG   =  644.873                                                                                
   DEXC   =    0.000                                                                                
   RMAX   =    1.529    core radius for proj-oper                                                   
   RAUG   =    1.300    factor for augmentation sphere                                              
   RDEP   =    1.501    radius for radial grids                                                     
   RDEPT  =    1.300    core radius for aug-charge                                                  
                                                                                                    
   Atomic configuration                                                                             
    4 entries                                                                                       
     n  l   j            E        occ.                                                              
     1  0  0.50      -273.3789   2.0000                                                             
     2  0  0.50       -13.7508   2.0000                                                             
     2  1  0.50        -5.2854   2.0000                                                             
     3  2  1.50        -5.4423   0.0000                                                             
   Description                                                                                      
     l       E           TYP  RCUT    TYP  RCUT                                                     
     0    -13.7508458     23  1.200                                                                 
     0     -8.2022199     23  1.200                                                                 
     1     -5.2854383     23  1.500                                                                 
     1     34.0145650     23  1.500                                                                 
     2     -5.4423304      7  1.500                                                                 
  local pseudopotential read in
  partial core-charges read in
  partial kinetic energy density read in
  atomic valenz-charges read in
  non local Contribution for L=           0  read in
    real space projection operators read in
  non local Contribution for L=           0  read in
    real space projection operators read in
  non local Contribution for L=           1  read in
    real space projection operators read in
  non local Contribution for L=           1  read in
    real space projection operators read in
    PAW grid and wavefunctions read in
 
   number of l-projection  operators is LMAX  =           4
   number of lm-projection operators is LMMAX =           8
 
 POTCAR:    PAW_PBE H 15Jun2001                   
   VRHFIN =H: ultrasoft test                                                                        
   LEXCH  = PE                                                                                      
   EATOM  =    12.4884 eV,    0.9179 Ry                                                             
                                                                                                    
   TITEL  = PAW_PBE H 15Jun2001                                                                     
   LULTRA =        F    use ultrasoft PP ?                                                          
   IUNSCR =        0    unscreen: 0-lin 1-nonlin 2-no                                               
   RPACOR =    0.000    partial core radius                                                         
   POMASS =    1.000; ZVAL   =    1.000    mass and valenz                                          
   RCORE  =    1.100    outmost cutoff radius                                                       
   RWIGS  =    0.700; RWIGS  =    0.370    wigner-seitz radius (au A)                               
   ENMAX  =  250.000; ENMIN  =  200.000 eV                                                          
   RCLOC  =    0.701    cutoff for local pot                                                        
   LCOR   =        T    correct aug charges                                                         
   LPAW   =        T    paw PP                                                                      
   EAUG   =  400.000                                                                                
   RMAX   =    1.123    core radius for proj-oper                                                   
   RAUG   =    1.200    factor for augmentation sphere                                              
   RDEP   =    1.112    radius for radial grids                                                     
   RDEPT  =    0.926    core radius for aug-charge                                                  
                                                                                                    
   Atomic configuration                                                                             
    2 entries                                                                                       
     n  l   j            E        occ.                                                              
     1  0  0.50        -6.4927   1.0000                                                             
     2  1  0.50        -3.4015   0.0000                                                             
   Description                                                                                      
     l       E           TYP  RCUT    TYP  RCUT                                                     
     0     -6.4927494     23  1.100                                                                 
     0      6.8029130     23  1.100                                                                 
     1     -4.0817478     23  1.100                                                                 
  local pseudopotential read in
  atomic valenz-charges read in
  non local Contribution for L=           0  read in
    real space projection operators read in
  non local Contribution for L=           0  read in
    real space projection operators read in
  non local Contribution for L=           1  read in
    real space projection operators read in
    PAW grid and wavefunctions read in
 
   number of l-projection  operators is LMAX  =           3
   number of lm-projection operators is LMMAX =           5
 
 POTCAR:    PAW_PBE N 08Apr2002                   
   VRHFIN =N: s2p3                                                                                  
   LEXCH  = PE                                                                                      
   EATOM  =   264.5486 eV,   19.4438 Ry                                                             
                                                                                                    
   TITEL  = PAW_PBE N 08Apr2002                                                                     
   LULTRA =        F    use ultrasoft PP ?                                                          
   IUNSCR =        1    unscreen: 0-lin 1-nonlin 2-no                                               
   RPACOR =    1.200    partial core radius                                                         
   POMASS =   14.001; ZVAL   =    5.000    mass and valenz                                          
   RCORE  =    1.500    outmost cutoff radius                                                       
   RWIGS  =    1.400; RWIGS  =    0.741    wigner-seitz radius (au A)                               
   ENMAX  =  400.000; ENMIN  =  300.000 eV                                                          
   ICORE  =        2    local potential                                                             
   LCOR   =        T    correct aug charges                                                         
   LPAW   =        T    paw PP                                                                      
   EAUG   =  627.112                                                                                
   DEXC   =    0.000                                                                                
   RMAX   =    1.529    core radius for proj-oper                                                   
   RAUG   =    1.300    factor for augmentation sphere                                              
   RDEP   =    1.514    radius for radial grids                                                     
   RDEPT  =    1.338    core radius for aug-charge                                                  
                                                                                                    
   Atomic configuration                                                                             
    4 entries                                                                                       
     n  l   j            E        occ.                                                              
     1  0  0.50      -384.7179   2.0000                                                             
     2  0  0.50       -18.5828   2.0000                                                             
     2  1  0.50        -7.0898   3.0000                                                             
     3  2  1.50        -6.8029   0.0000                                                             
   Description                                                                                      
     l       E           TYP  RCUT    TYP  RCUT                                                     
     0    -18.5828119     23  1.200                                                                 
     0    -13.5018863     23  1.200                                                                 
     1     -7.0897853     23  1.500                                                                 
     1      9.5240782     23  1.500                                                                 
     2     -6.8029130      7  1.500                                                                 
  local pseudopotential read in
  partial core-charges read in
  partial kinetic energy density read in
  atomic valenz-charges read in
  non local Contribution for L=           0  read in
    real space projection operators read in
  non local Contribution for L=           0  read in
    real space projection operators read in
  non local Contribution for L=           1  read in
    real space projection operators read in
  non local Contribution for L=           1  read in
    real space projection operators read in
    PAW grid and wavefunctions read in
 
   number of l-projection  operators is LMAX  =           4
   number of lm-projection operators is LMMAX =           8
 
 -----------------------------------------------------------------------------
|                                                                             |
|               ----> ADVICE to this user running VASP <----                  |
|                                                                             |
|     You have a (more or less) 'large supercell' and for larger cells it     |
|     might be more efficient to use real-space projection operators.         |
|     Therefore, try LREAL= Auto in the INCAR file.                           |
|     Mind: For very accurate calculation, you might also keep the            |
|     reciprocal projection scheme (i.e. LREAL=.FALSE.).                      |
|                                                                             |
 -----------------------------------------------------------------------------

 -----------------------------------------------------------------------------
|                                                                             |
|               ----> ADVICE to this user running VASP <----                  |
|                                                                             |
|     You enforced a specific xc type in the INCAR file but a different       |
|     type was found in the POTCAR file.                                      |
|     I HOPE YOU KNOW WHAT YOU ARE DOING!                                     |
|                                                                             |
 -----------------------------------------------------------------------------

  PAW_PBE C 08Apr2002                   :
 energy of atom  1       EATOM= -147.1560
 kinetic energy error for atom=    0.0076 (will be added to EATOM!!)
  PAW_PBE H 15Jun2001                   :
 energy of atom  2       EATOM=  -12.4884
 kinetic energy error for atom=    0.0020 (will be added to EATOM!!)
  PAW_PBE N 08Apr2002                   :
 energy of atom  3       EATOM= -264.5486
 kinetic energy error for atom=    0.0138 (will be added to EATOM!!)
 
 
 POSCAR: Molecule_POSCAR_10
  positions in cartesian coordinates
  No initial velocities read in
 exchange correlation table for  LEXCH =       11
   RHO(1)=    0.500       N(1)  =     2000
   RHO(2)=  100.500       N(2)  =     4000
 


--------------------------------------------------------------------------------------------------------


 ion  position               nearest neighbor table
   1  0.658  0.498  0.558-   9 1.09  11 1.11  10 1.12   2 1.52
   2  0.605  0.506  0.505-  12 1.10  13 1.12   3 1.51   1 1.52
   3  0.538  0.501  0.539-  14 1.11  15 1.11   2 1.51   4 1.53
   4  0.480  0.508  0.489-  16 1.10   6 1.51   5 1.51   3 1.53
   5  0.488  0.452  0.439-  18 1.10  19 1.11  17 1.12   4 1.51
   6  0.414  0.501  0.524-  21 1.10  20 1.11   7 1.50   4 1.51
   7  0.356  0.508  0.477-  22 1.10  23 1.13   8 1.47   6 1.50
   8  0.358  0.574  0.445-  24 1.17   7 1.47
   9  0.661  0.445  0.572-   1 1.09
  10  0.644  0.526  0.605-   1 1.12
  11  0.705  0.519  0.537-   1 1.11
  12  0.613  0.553  0.478-   2 1.10
  13  0.611  0.461  0.472-   2 1.12
  14  0.533  0.538  0.579-   3 1.11
  15  0.536  0.451  0.563-   3 1.11
  16  0.486  0.557  0.465-   4 1.10
  17  0.533  0.462  0.407-   5 1.12
  18  0.446  0.448  0.403-   5 1.10
  19  0.497  0.404  0.467-   5 1.11
  20  0.408  0.539  0.564-   6 1.11
  21  0.409  0.452  0.549-   6 1.10
  22  0.354  0.470  0.437-   7 1.10
  23  0.307  0.501  0.505-   7 1.13
  24  0.359  0.627  0.421-   8 1.17
 

IMPORTANT INFORMATION: All symmetrisations will be switched off!
NOSYMM: (Re-)initialisation of all symmetry stuff for point group C_1.


----------------------------------------------------------------------------------------

                                     Primitive cell                                     

  volume of cell :    8000.0000

  direct lattice vectors                    reciprocal lattice vectors
    20.000000000  0.000000000  0.000000000     0.050000000  0.000000000  0.000000000
     0.000000000 20.000000000  0.000000000     0.000000000  0.050000000  0.000000000
     0.000000000  0.000000000 20.000000000     0.000000000  0.000000000  0.050000000

  length of vectors
    20.000000000 20.000000000 20.000000000     0.050000000  0.050000000  0.050000000

  position of ions in fractional coordinates (direct lattice)
     0.658148750  0.497770300  0.558315050
     0.604936150  0.505511050  0.504735250
     0.537951800  0.500632700  0.538704600
     0.480495750  0.508033550  0.488837250
     0.488448700  0.451861000  0.439015100
     0.414075950  0.500862600  0.523937950
     0.356010050  0.507921450  0.476987400
     0.357742850  0.574151200  0.445048400
     0.660751050  0.445088500  0.572075400
     0.643992250  0.525806650  0.604516250
     0.705108150  0.518674300  0.537496100
     0.613063550  0.552572050  0.477948950
     0.610954250  0.460513500  0.472145300
     0.532556750  0.537896250  0.579387900
     0.536057400  0.450792900  0.563456350
     0.485808400  0.557451800  0.464725850
     0.533184900  0.462396650  0.407022500
     0.446497150  0.447990400  0.403328250
     0.496639900  0.404481050  0.467112900
     0.408165200  0.539287900  0.563822950
     0.409430500  0.451988050  0.549170000
     0.353789100  0.470097250  0.436814950
     0.307349050  0.500997300  0.504877800
     0.358842450  0.627221600  0.420517600

  ion indices of the primitive-cell ions
   primitive index   ion index
                 1           1
                 2           2
                 3           3
                 4           4
                 5           5
                 6           6
                 7           7
                 8           8
                 9           9
                10          10
                11          11
                12          12
                13          13
                14          14
                15          15
                16          16
                17          17
                18          18
                19          19
                20          20
                21          21
                22          22
                23          23
                24          24

----------------------------------------------------------------------------------------

 
 
 KPOINTS: Gamma-point only                        

Automatic generation of k-mesh.
 Grid dimensions read from file:
 generate k-points for:    1    1    1

 Generating k-lattice:

  Cartesian coordinates                     Fractional coordinates (reciprocal lattice)
     0.050000000  0.000000000  0.000000000     1.000000000  0.000000000  0.000000000
     0.000000000  0.050000000  0.000000000     0.000000000  1.000000000  0.000000000
     0.000000000  0.000000000  0.050000000     0.000000000  0.000000000  1.000000000

  Length of vectors
     0.050000000  0.050000000  0.050000000

  Shift w.r.t. Gamma in fractional coordinates (k-lattice)
     0.000000000  0.000000000  0.000000000

 
 Subroutine IBZKPT returns following result:
 ===========================================
 
 Found      1 irreducible k-points:
 
 Following reciprocal coordinates:
            Coordinates               Weight
  0.000000  0.000000  0.000000      1.000000
 
 Following cartesian coordinates:
            Coordinates               Weight
  0.000000  0.000000  0.000000      1.000000
 
 
 Subroutine IBZKPT_HF returns following result:
 ==============================================
 
 Found      1 k-points in 1st BZ
 the following      1 k-points will be used (e.g. in the exchange kernel)
 Following reciprocal coordinates:   # in IRBZ
  0.000000  0.000000  0.000000    1.00000000   1 t-inv F


--------------------------------------------------------------------------------------------------------




 Dimension of arrays:
   k-points           NKPTS =      1   k-points in BZ     NKDIM =      1   number of bands    NBANDS=     40
   number of dos      NEDOS =   2000   number of ions     NIONS =     24
   non local maximal  LDIM  =      4   non local SUM 2l+1 LMDIM =      8
   total plane-waves  NPLWV = ******
   max r-space proj   IRMAX =      1   max aug-charges    IRDMAX=   5390
   dimension x,y,z NGX =   150 NGY =  150 NGZ =  150
   dimension x,y,z NGXF=   300 NGYF=  300 NGZF=  300
   support grid    NGXF=   300 NGYF=  300 NGZF=  300
   ions per type =               8  15   1
   NGX,Y,Z   is equivalent  to a cutoff of  12.47, 12.47, 12.47 a.u.
   NGXF,Y,Z  is equivalent  to a cutoff of  24.94, 24.94, 24.94 a.u.

 SYSTEM =  QM9_Benchmark_B3LYP_Gap_Dipole          
 POSCAR =  Molecule_POSCAR_10                      

 Startparameter for this run:
   NWRITE =      2    write-flag & timer
   PREC   = accura    normal or accurate (medium, high low for compatibility)
   ISTART =      0    job   : 0-new  1-cont  2-samecut
   ICHARG =      2    charge: 1-file 2-atom 10-const
   ISPIN  =      1    spin polarized calculation?
   LNONCOLLINEAR =      F non collinear calculations
   LSORBIT =      F    spin-orbit coupling
   INIWAV =      1    electr: 0-lowe 1-rand  2-diag
   LASPH  =      F    aspherical Exc in radial PAW
 Electronic Relaxation 1
   ENCUT  =  500.0 eV  36.75 Ry    6.06 a.u.  36.46 36.46 36.46*2*pi/ulx,y,z
   ENINI  =  500.0     initial cutoff
   ENAUG  =  644.9 eV  augmentation charge cutoff
   NELM   =    100;   NELMIN=  2; NELMDL=  0     # of ELM steps 
   EDIFF  = 0.1E-05   stopping-criterion for ELM
   LREAL  =      F    real-space projection
   NLSPLINE    = F    spline interpolate recip. space projectors
   LCOMPAT=      F    compatible to vasp.4.4
   GGA_COMPAT  = T    GGA compatible to vasp.4.4-vasp.4.6
   LMAXPAW     = -100 max onsite density
   LMAXMIX     =    2 max onsite mixed and CHGCAR
   VOSKOWN=      0    Vosko Wilk Nusair interpolation
   ROPT   =    0.00000   0.00000   0.00000
 Ionic relaxation
   EDIFFG = 0.1E-04   stopping-criterion for IOM
   NSW    =      0    number of steps for IOM
   NBLOCK =      1;   KBLOCK =      1    inner block; outer block 
   IBRION =     -1    ionic relax: 0-MD 1-quasi-New 2-CG
   NFREE  =      0    steps in history (QN), initial steepest desc. (CG)
   ISIF   =      0    stress and relaxation
   IWAVPR =     10    prediction:  0-non 1-charg 2-wave 3-comb
   ISYM   =      0    0-nonsym 1-usesym 2-fastsym
   LCORR  =      T    Harris-Foulkes like correction to forces

   POTIM  = 0.5000    time-step for ionic-motion
   TEIN   =    0.0    initial temperature
   TEBEG  =    0.0;   TEEND  =   0.0 temperature during run
   SMASS  =  -3.00    Nose mass-parameter (am)
   estimated Nose-frequenzy (Omega)   =  0.10E-29 period in steps = 0.13E+47 mass=  -0.914E-26a.u.
   SCALEE = 1.0000    scale energy and forces
   NPACO  =    256;   APACO  = 10.0  distance and # of slots for P.C.
   PSTRESS=    0.0 pullay stress

  Mass of Ions in am
   POMASS =  12.01  1.00 14.00
  Ionic Valenz
   ZVAL   =   4.00  1.00  5.00
  Atomic Wigner-Seitz radii
   RWIGS  =  -1.00 -1.00 -1.00
  virtual crystal weights 
   VCA    =   1.00  1.00  1.00
   NELECT =      52.0000    total number of electrons
   NUPDOWN=      -1.0000    fix difference up-down

 DOS related values:
   EMIN   =  10.00;   EMAX   =-10.00  energy-range for DOS
   EFERMI =   0.00;   METHOD = LEGACY      
   ISMEAR =     0;   SIGMA  =   0.05  broadening in eV -4-tet -1-fermi 0-gaus

 Electronic relaxation 2 (details)
   IALGO  =     53    algorithm
   LDIAG  =      T    sub-space diagonalisation (order eigenvalues)
   LSUBROT=      F    optimize rotation matrix (better conditioning)
   TURBO    =      0    0=normal 1=particle mesh
   IRESTART =      0    0=no restart 2=restart with 2 vectors
   NREBOOT  =      0    no. of reboots
   NMIN     =      0    reboot dimension
   EREF     =   0.00    reference energy to select bands
   IMIX   =      4    mixing-type and parameters
     AMIX     =   0.40;   BMIX     =  1.00
     AMIX_MAG =   1.60;   BMIX_MAG =  1.00
     AMIN     =   0.10
     WC   =   100.;   INIMIX=   1;  MIXPRE=   1;  MAXMIX= -45

 Intra band minimization:
   WEIMIN = 0.0000     energy-eigenvalue tresh-hold
   EBREAK =  0.62E-08  absolut break condition
   DEPER  =   0.30     relativ break condition  

   TIME   =   0.40     timestep for ELM

  volume/ion in A,a.u.               =     333.33      2249.44
  Fermi-wavevector in a.u.,A,eV,Ry     =   0.305524  0.577357  1.270038  0.093345
  Thomas-Fermi vector in A             =   1.178628
 
 Write flags
   LWAVE        =      T    write WAVECAR
   LDOWNSAMPLE  =      F    k-point downsampling of WAVECAR
   LCHARG       =      T    write CHGCAR
   LVTOT        =      F    write LOCPOT, total local potential
   LVHAR        =      F    write LOCPOT, Hartree potential only
   LELF         =      F    write electronic localiz. function (ELF)
   LORBIT       =     11    0 simple, 1 ext, 2 COOP (PROOUT), +10 PAW based schemes


 Dipole corrections
   LMONO  =      F    monopole corrections only (constant potential shift)
   LDIPOL =      T    correct potential (dipole corrections)
   IDIPOL =      4    1-x, 2-y, 3-z, 4-all directions 
   EPSILON=  1.0000000 bulk dielectric constant

 Exchange correlation treatment:
   GGA     =    B3    GGA type
   LEXCH   =    11    internal setting for exchange type
   LIBXC   =     F    Libxc                    
   VOSKOWN =     0    Vosko Wilk Nusair interpolation
   EXXOEP  =     0    0=HF, 1=EXX-LHF (local Hartree Fock) 2=EXX OEP
   LHFCALC =     T    Hartree Fock is set to
   LSYMGRAD=     F    symmetrize gradient (conserves proper symmetry)
   PRECFOCK=normal    Normal, Fast or Accurate (Low or Medium for compatibility)
   LRHFCALC=     F    long range Hartree Fock
   LRSCOR  =     F    long range correlation only (use DFT for short range part)
   LTHOMAS =     F    Thomas Fermi screening in HF
   LMODELHF=     F    short range full HF, long range fraction AEXX
   FOCKCORR=     1    mode to apply convergence corrections
   LFOCKACE=     T    use Adeptively-Compressed-Exchange operator
   ENCUT4O =  -1.0   cutoff for four orbital integrals eV
   LMAXFOCK=     4    L truncation for augmentation on plane wave grid
   LMAXFOCKAE=  -1    L truncation for all-electron charge restoration on plane wave grid
   NMAXFOCKAE=   1    number of basis functions for all-electron charge restoration
   LFOCKAEDFT=     F  apply the AE augmentation even for DFT
   NKREDX  =     1    reduce k-point grid by
   NKREDY  =     1    reduce k-point grid by
   NKREDZ  =     1    reduce k-point grid by
   SHIFTRED=     F    shift reduced grid of Gamma
   HFKIDENT=     F    idential grid for each k-point
   ODDONLY =     F    use only odd q-grid points
   EVENONLY=     F    use only even q-grid points
   HFALPHA =   -1.0000 decay constant for conv. correction
   MCALPHA =    0.0000 extent of test-charge in conv. correction in multipole expansion
   AEXX    =    0.2000 exact exchange contribution
   HFSCREEN=    0.0000 screening length (either q_TF or 0.3 A-1)
   HFSCREENC=   0.0000 screening length for correlation (either q_TF or 0.3 A-1)
   HFRCUT  =    0.0000 spherical cutoff for potential kernel
   ALDAX   =    0.8000 LDA exchange part
   AGGAX   =    0.7200 GGA exchange part
   ALDAC   =    0.1900 LDA correlation
   AGGAC   =    0.8100 GGA correlation
   ENCUTFOCK=  -1.0 apply spherical cutoff to Coloumb kernel
   NBANDSGWLOW=     1    first orbital included in HF term
   NBLOCK_FOCK=    64    blocking factor in FOCK_ACC

 Linear response parameters
   LEPSILON=     F    determine dielectric tensor
   LRPA    =     F    only Hartree local field effects (RPA)
   LNABLA  =     F    use nabla operator in PAW spheres
   LVEL    =     F    velocity operator in full k-point grid
   CSHIFT  =0.1000    complex shift for real part using Kramers Kronig
   OMEGAMAX=  -1.0    maximum frequency
   DEG_THRESHOLD= 0.2000000E-02 threshold for treating states as degnerate
   RTIME   =   -0.100 relaxation time in fs
  (WPLASMAI=    0.000 imaginary part of plasma frequency in eV, 0.658/RTIME)
   DFIELD  = 0.0000000 0.0000000 0.0000000 field for delta impulse in time
 
  Optional k-point grid parameters
   LKPOINTS_OPT  =     F    use optional k-point grid
   KPOINTS_OPT_MODE=     1    mode for optional k-point grid
 
 Orbital magnetization related:
   ORBITALMAG=     F  switch on orbital magnetization
   LCHIMAG   =     F  perturbation theory with respect to B field
   DQ        =  0.001000  dq finite difference perturbation B field
   LLRAUG    =     F  two centre corrections for induced B field
   LBONE     =     F  B-component reconstruction in AE one-centre
   LVGVCALC  =     T  calculate vGv susceptibility
   LVGVAPPL  =     F  apply vGv susceptibility instead of pGv for G=0

 Random number generation:
   RANDOM_GENERATOR = DEFAULT
   PCG_SEED         = not used


--------------------------------------------------------------------------------------------------------


 Static calculation
 charge density and potential will be updated during run
 non-spin polarized calculation
 Conjugate gradient for all bands (Freysoldt, et al. PRB 79, 241103 (2009))
 perform sub-space diagonalisation
    before iterative eigenvector-optimisation
 modified Broyden-mixing scheme, WC =      100.0
 initial mixing is a Kerker type mixing with AMIX =  0.4000 and BMIX =      1.0000
 Hartree-type preconditioning will be used
 using additional bands           14
 reciprocal scheme for non local part
 use partial core corrections
 no Harris-corrections to forces 
 use gradient corrections 
 use of overlap-Matrix (Vanderbilt PP)
 Gauss-broadening in eV      SIGMA  =   0.05


--------------------------------------------------------------------------------------------------------


  energy-cutoff  :      500.00
  volume of cell :     8000.00
      direct lattice vectors                 reciprocal lattice vectors
    20.000000000  0.000000000  0.000000000     0.050000000  0.000000000  0.000000000
     0.000000000 20.000000000  0.000000000     0.000000000  0.050000000  0.000000000
     0.000000000  0.000000000 20.000000000     0.000000000  0.000000000  0.050000000

  length of vectors
    20.000000000 20.000000000 20.000000000     0.050000000  0.050000000  0.050000000


 
 k-points in units of 2pi/SCALE and weight: Gamma-point only                        
   0.00000000  0.00000000  0.00000000       1.000
 
 k-points in reciprocal lattice and weights: Gamma-point only                        
   0.00000000  0.00000000  0.00000000       1.000
 
 position of ions in fractional coordinates (direct lattice) 
   0.65814875  0.49777030  0.55831505
   0.60493615  0.50551105  0.50473525
   0.53795180  0.50063270  0.53870460
   0.48049575  0.50803355  0.48883725
   0.48844870  0.45186100  0.43901510
   0.41407595  0.50086260  0.52393795
   0.35601005  0.50792145  0.47698740
   0.35774285  0.57415120  0.44504840
   0.66075105  0.44508850  0.57207540
   0.64399225  0.52580665  0.60451625
   0.70510815  0.51867430  0.53749610
   0.61306355  0.55257205  0.47794895
   0.61095425  0.46051350  0.47214530
   0.53255675  0.53789625  0.57938790
   0.53605740  0.45079290  0.56345635
   0.48580840  0.55745180  0.46472585
   0.53318490  0.46239665  0.40702250
   0.44649715  0.44799040  0.40332825
   0.49663990  0.40448105  0.46711290
   0.40816520  0.53928790  0.56382295
   0.40943050  0.45198805  0.54917000
   0.35378910  0.47009725  0.43681495
   0.30734905  0.50099730  0.50487780
   0.35884245  0.62722160  0.42051760
 
 position of ions in cartesian coordinates  (Angst):
  13.16297500  9.95540600 11.16630100
  12.09872300 10.11022100 10.09470500
  10.75903600 10.01265400 10.77409200
   9.60991500 10.16067100  9.77674500
   9.76897400  9.03722000  8.78030200
   8.28151900 10.01725200 10.47875900
   7.12020100 10.15842900  9.53974800
   7.15485700 11.48302400  8.90096800
  13.21502100  8.90177000 11.44150800
  12.87984500 10.51613300 12.09032500
  14.10216300 10.37348600 10.74992200
  12.26127100 11.05144100  9.55897900
  12.21908500  9.21027000  9.44290600
  10.65113500 10.75792500 11.58775800
  10.72114800  9.01585800 11.26912700
   9.71616800 11.14903600  9.29451700
  10.66369800  9.24793300  8.14045000
   8.92994300  8.95980800  8.06656500
   9.93279800  8.08962100  9.34225800
   8.16330400 10.78575800 11.27645900
   8.18861000  9.03976100 10.98340000
   7.07578200  9.40194500  8.73629900
   6.14698100 10.01994600 10.09755600
   7.17684900 12.54443200  8.41035200
 


--------------------------------------------------------------------------------------------------------


 k-point   1 :   0.0000 0.0000 0.0000  plane waves:  203269

 maximum and minimum number of plane-waves per node :     50840    50799

 maximum number of plane-waves:    203269
 maximum index in each direction: 
   IXMAX=   36   IYMAX=   36   IZMAX=   36
   IXMIN=  -36   IYMIN=  -36   IZMIN=  -36


 parallel 3D FFT for wavefunctions:
    minimum data exchange during FFTs selected (reduces bandwidth)
 parallel 3D FFT for charge:
    minimum data exchange during FFTs selected (reduces bandwidth)


 FFT grid for exact exchange (Hartree Fock) 
  NGX =112; NGY =112; NGZ =112

 
 Radii for the augmentation spheres in the non-local exchange
 for species   1 augmentation radius   0.874 (default was   0.699)
       energy cutoff for augmentation   2000.0
 for species   2 augmentation radius   0.650 (default was   0.520)
       energy cutoff for augmentation   2000.0
 for species   3 augmentation radius   0.886 (default was   0.709)
       energy cutoff for augmentation   2000.0

 real space projection operators:
  total allocation   :        526.15 KBytes
  max/ min on nodes  :        132.47        130.22

 Maximum index for augmentation-charges in exchange          131
  SETUP_FOCK is finished

 total amount of memory used by VASP MPI-rank0   239786. kBytes
=======================================================================

   base      :      30000. kBytes
   nonl-proj :      29279. kBytes
   fftplans  :      75720. kBytes
   grid      :      92179. kBytes
   one-center:         18. kBytes
   HF        :          9. kBytes
   nonlr-proj:        374. kBytes
   wavefun   :      12207. kBytes
 
     INWAV:  cpu time      0.0000: real time      0.0000
 Broyden mixing: mesh for mixing (old mesh)
   NGX = 73   NGY = 73   NGZ = 73
  (NGX  =300   NGY  =300   NGZ  =300)
  gives a total of 389017 points

 initial charge density was supplied:
 charge density of overlapping atoms calculated
 number of electron      52.0000000 magnetization 
 charge density for first step will be calculated from the start-wavefunctions


--------------------------------------------------------------------------------------------------------


 Maximum index for augmentation-charges          340 (set IRDMAX)


--------------------------------------------------------------------------------------------------------


    FEWALD:  cpu time      0.0007: real time      0.0007


--------------------------------------- Ionic step        1  -------------------------------------------




--------------------------------------- Iteration      1(   1)  ---------------------------------------


    POTLOK:  cpu time      0.4057: real time      0.4082
    SETDIJ:  cpu time      0.0028: real time      0.0028
    TRIAL :  cpu time      0.9496: real time      0.9575
    CORREC:  cpu time      0.0019: real time      0.0020
    --------------------------------------------
      LOOP:  cpu time      1.3655: real time      1.3764

 eigenvalue-minimisations  :    88
 total energy-change (2. order) : 0.6985226E+03  (-0.6727222E+03)
 number of electron      52.0000000 magnetization 
 augmentation part       52.0000000 magnetization 

 DIPCOR: dipole corrections for dipol
 direction  1 min pos     1, direction  2 min pos     1, direction  3 min pos     1,
 dipolmoment           0.000047     -0.000035      0.000022 electrons x Angstroem
 Tr[quadrupol]        44.161521

 energy correction for charged system         0.000000 eV
 dipol+quadrupol energy correction           -0.000000 eV
 added-field ion interaction          0.000011 eV  (added to PSCEN)


 Free energy of the ion-electron system (eV)
  ---------------------------------------------------
  alpha Z        PSCENC =         1.44551431
  Ewald energy   TEWEN  =      3957.29976010
  -Hartree energ DENC   =     -5008.55941853
  -exchange      EXHF   =         0.00000000
  -V(xc)+E(xc)   XCENC  =       159.51518222
  PAW double counting   =      1105.11951419    -1276.24992156
  entropy T*S    EENTRO =        -0.00205909
  eigenvalues    EBANDS =       147.17666079
  atomic energy  EATOM  =      1612.77738675
  ---------------------------------------------------
  free energy    TOTEN  =       698.52261918 eV

  energy without entropy =      698.52467827  energy(sigma->0) =      698.52364873
  exchange ACFDT corr.  =         0.00000000  see jH, gK, PRB 81, 115126


--------------------------------------------------------------------------------------------------------




--------------------------------------- Iteration      1(   2)  ---------------------------------------


    TRIAL :  cpu time      1.4867: real time      1.4990
    CORREC:  cpu time      0.0010: real time      0.0012
    --------------------------------------------
      LOOP:  cpu time      1.4879: real time      1.5006

 eigenvalue-minimisations  :   160
 total energy-change (2. order) :-0.2329676E+03  (-0.2212558E+03)
 number of electron      52.0000000 magnetization 
 augmentation part       52.0000000 magnetization 

 DIPCOR: dipole corrections for dipol
 direction  1 min pos     1, direction  2 min pos     1, direction  3 min pos     1,
 dipolmoment           0.000047     -0.000035      0.000022 electrons x Angstroem
 Tr[quadrupol]        44.161521

 energy correction for charged system         0.000000 eV
 dipol+quadrupol energy correction           -0.000000 eV
 added-field ion interaction          0.000011 eV  (added to PSCEN)


 Free energy of the ion-electron system (eV)
  ---------------------------------------------------
  alpha Z        PSCENC =         1.44551431
  Ewald energy   TEWEN  =      3957.29976010
  -Hartree energ DENC   =     -5008.55941853
  -exchange      EXHF   =         0.00000000
  -V(xc)+E(xc)   XCENC  =       159.51518222
  PAW double counting   =      1105.11951419    -1276.24992156
  entropy T*S    EENTRO =        -0.00473027
  eigenvalues    EBANDS =       -85.78827823
  atomic energy  EATOM  =      1612.77738675
  ---------------------------------------------------
  free energy    TOTEN  =       465.55500899 eV

  energy without entropy =      465.55973925  energy(sigma->0) =      465.55737412
  exchange ACFDT corr.  =         0.00000000  see jH, gK, PRB 81, 115126


--------------------------------------------------------------------------------------------------------




--------------------------------------- Iteration      1(   3)  ---------------------------------------


    TRIAL :  cpu time      1.4844: real time      1.4962
    CORREC:  cpu time      0.0014: real time      0.0014
    --------------------------------------------
      LOOP:  cpu time      1.4859: real time      1.4977

 eigenvalue-minimisations  :   160
 total energy-change (2. order) :-0.2902278E+03  (-0.2725840E+03)
 number of electron      52.0000000 magnetization 
 augmentation part       52.0000000 magnetization 

 DIPCOR: dipole corrections for dipol
 direction  1 min pos     1, direction  2 min pos     1, direction  3 min pos     1,
 dipolmoment           0.000047     -0.000035      0.000022 electrons x Angstroem
 Tr[quadrupol]        44.161521

 energy correction for charged system         0.000000 eV
 dipol+quadrupol energy correction           -0.000000 eV
 added-field ion interaction          0.000011 eV  (added to PSCEN)


 Free energy of the ion-electron system (eV)
  ---------------------------------------------------
  alpha Z        PSCENC =         1.44551431
  Ewald energy   TEWEN  =      3957.29976010
  -Hartree energ DENC   =     -5008.55941853
  -exchange      EXHF   =         0.00000000
  -V(xc)+E(xc)   XCENC  =       159.51518222
  PAW double counting   =      1105.11951419    -1276.24992156
  entropy T*S    EENTRO =        -0.04900197
  eigenvalues    EBANDS =      -375.97179787
  atomic energy  EATOM  =      1612.77738675
  ---------------------------------------------------
  free energy    TOTEN  =       175.32721764 eV

  energy without entropy =      175.37621961  energy(sigma->0) =      175.35171863
  exchange ACFDT corr.  =         0.00000000  see jH, gK, PRB 81, 115126


--------------------------------------------------------------------------------------------------------




--------------------------------------- Iteration      1(   4)  ---------------------------------------


    TRIAL :  cpu time      1.4836: real time      1.4963
    CORREC:  cpu time      0.0009: real time      0.0011
    --------------------------------------------
      LOOP:  cpu time      1.4846: real time      1.4975

 eigenvalue-minimisations  :   160
 total energy-change (2. order) :-0.2474834E+03  (-0.2321907E+03)
 number of electron      52.0000000 magnetization 
 augmentation part       52.0000000 magnetization 

 DIPCOR: dipole corrections for dipol
 direction  1 min pos     1, direction  2 min pos     1, direction  3 min pos     1,
 dipolmoment           0.000047     -0.000035      0.000022 electrons x Angstroem
 Tr[quadrupol]        44.161521

 energy correction for charged system         0.000000 eV
 dipol+quadrupol energy correction           -0.000000 eV
 added-field ion interaction          0.000011 eV  (added to PSCEN)


 Free energy of the ion-electron system (eV)
  ---------------------------------------------------
  alpha Z        PSCENC =         1.44551431
  Ewald energy   TEWEN  =      3957.29976010
  -Hartree energ DENC   =     -5008.55941853
  -exchange      EXHF   =         0.00000000
  -V(xc)+E(xc)   XCENC  =       159.51518222
  PAW double counting   =      1105.11951419    -1276.24992156
  entropy T*S    EENTRO =        -0.00236277
  eigenvalues    EBANDS =      -623.50183313
  atomic energy  EATOM  =      1612.77738675
  ---------------------------------------------------
  free energy    TOTEN  =       -72.15617842 eV

  energy without entropy =      -72.15381565  energy(sigma->0) =      -72.15499703
  exchange ACFDT corr.  =         0.00000000  see jH, gK, PRB 81, 115126


--------------------------------------------------------------------------------------------------------




--------------------------------------- Iteration      1(   5)  ---------------------------------------


    POTLOK:  cpu time      0.8138: real time      0.8173
    SETDIJ:  cpu time      0.0023: real time      0.0023
    TRIAL :  cpu time      6.4985: real time      6.5440
    CORREC:  cpu time      0.0004: real time      0.0004
    CHARGE:  cpu time      0.1128: real time      0.1138
    --------------------------------------------
      LOOP:  cpu time      7.4278: real time      7.4779

 eigenvalue-minimisations  :   160
 total energy-change (2. order) : 0.7482273E+01  (-0.1610295E+03)
 number of electron      51.9999997 magnetization 
 augmentation part        1.3365788 magnetization 

 DIPCOR: dipole corrections for dipol
 direction  1 min pos     1, direction  2 min pos     1, direction  3 min pos     1,
 dipolmoment           0.000047     -0.000035      0.000022 electrons x Angstroem
 Tr[quadrupol]        44.161521

 energy correction for charged system         0.000000 eV
 dipol+quadrupol energy correction           -0.000000 eV
 added-field ion interaction          0.000011 eV  (added to PSCEN)


 Free energy of the ion-electron system (eV)
  ---------------------------------------------------
  alpha Z        PSCENC =         1.44551431
  Ewald energy   TEWEN  =      3957.29976010
  -Hartree energ DENC   =     -5008.55941853
  -exchange      EXHF   =        72.46267624
  -V(xc)+E(xc)   XCENC  =       127.24204107
  PAW double counting   =      1130.20103026    -1137.65552453
  entropy T*S    EENTRO =        -0.00000000
  eigenvalues    EBANDS =      -819.88737121
  atomic energy  EATOM  =      1612.77738675
  ---------------------------------------------------
  free energy    TOTEN  =       -64.67390556 eV

  energy without entropy =      -64.67390556  energy(sigma->0) =      -64.67390556
  exchange ACFDT corr.  =        -0.00496402  see jH, gK, PRB 81, 115126


--------------------------------------------------------------------------------------------------------




--------------------------------------- Iteration      1(   6)  ---------------------------------------


    POTLOK:  cpu time      1.5790: real time      1.5850
    SETDIJ:  cpu time      0.0028: real time      0.0028
    TRIAL :  cpu time      5.1731: real time      5.2083
    CORREC:  cpu time      0.0004: real time      0.0004
    CHARGE:  cpu time      0.1109: real time      0.1122
    --------------------------------------------
      LOOP:  cpu time      6.8663: real time      6.9089

 eigenvalue-minimisations  :     0
 total energy-change (2. order) : 0.1609790E+02  (-0.2481592E+03)
 number of electron      51.9999997 magnetization 
 augmentation part        1.3319891 magnetization 

 DIPCOR: dipole corrections for dipol
 direction  1 min pos     1, direction  2 min pos     1, direction  3 min pos     1,
 dipolmoment           0.269788      0.029547     -0.286651 electrons x Angstroem
 Tr[quadrupol]       406.963694

 energy correction for charged system         0.000000 eV
 dipol+quadrupol energy correction           -0.000587 eV
 added-field ion interaction          0.015641 eV  (added to PSCEN)


 Free energy of the ion-electron system (eV)
  ---------------------------------------------------
  alpha Z        PSCENC =         1.46055698
  Ewald energy   TEWEN  =      3957.29976010
  -Hartree energ DENC   =     -4577.08376417
  -exchange      EXHF   =        98.05913340
  -V(xc)+E(xc)   XCENC  =       129.43077553
  PAW double counting   =      3708.38225264    -3717.93012957
  entropy T*S    EENTRO =        -0.00000000
  eigenvalues    EBANDS =     -1260.97197644
  atomic energy  EATOM  =      1612.77738675
  ---------------------------------------------------
  free energy    TOTEN  =       -48.57600478 eV

  energy without entropy =      -48.57600478  energy(sigma->0) =      -48.57600478
  exchange ACFDT corr.  =        -0.00000000  see jH, gK, PRB 81, 115126


--------------------------------------------------------------------------------------------------------




--------------------------------------- Iteration      1(   7)  ---------------------------------------


    POTLOK:  cpu time      0.9050: real time      0.9085
    SETDIJ:  cpu time      0.0030: real time      0.0031
    TRIAL :  cpu time      5.1683: real time      5.2030
    CORREC:  cpu time      0.0003: real time      0.0004
    CHARGE:  cpu time      0.1114: real time      0.1122
    --------------------------------------------
      LOOP:  cpu time      6.1883: real time      6.2274

 eigenvalue-minimisations  :     0
 total energy-change (2. order) :-0.8466271E+02  (-0.2430254E+02)
 number of electron      51.9999997 magnetization 
 augmentation part        1.2035058 magnetization 

 DIPCOR: dipole corrections for dipol
 direction  1 min pos     1, direction  2 min pos     1, direction  3 min pos     1,
 dipolmoment           0.134674      0.993129     -0.321687 electrons x Angstroem
 Tr[quadrupol]        87.626865

 energy correction for charged system         0.000000 eV
 dipol+quadrupol energy correction           -0.004177 eV
 added-field ion interaction         -0.098500 eV  (added to PSCEN)


 Free energy of the ion-electron system (eV)
  ---------------------------------------------------
  alpha Z        PSCENC =         1.34282620
  Ewald energy   TEWEN  =      3957.29976010
  -Hartree energ DENC   =     -5221.31196499
  -exchange      EXHF   =       106.77309273
  -V(xc)+E(xc)   XCENC  =       137.14276069
  PAW double counting   =      4054.64889731    -4063.93582083
  entropy T*S    EENTRO =        -0.00000000
  eigenvalues    EBANDS =      -717.97565154
  atomic energy  EATOM  =      1612.77738675
  ---------------------------------------------------
  free energy    TOTEN  =      -133.23871358 eV

  energy without entropy =     -133.23871358  energy(sigma->0) =     -133.23871358
  exchange ACFDT corr.  =        -0.00000000  see jH, gK, PRB 81, 115126


--------------------------------------------------------------------------------------------------------




--------------------------------------- Iteration      1(   8)  ---------------------------------------


    POTLOK:  cpu time      0.9119: real time      0.9156
    SETDIJ:  cpu time      0.0052: real time      0.0052
    TRIAL :  cpu time      5.1594: real time      5.1900
    CORREC:  cpu time      0.0003: real time      0.0003
    CHARGE:  cpu time      0.1108: real time      0.1117
    --------------------------------------------
      LOOP:  cpu time      6.1879: real time      6.2231

 eigenvalue-minimisations  :     0
 total energy-change (2. order) :-0.8636621E+01  (-0.1917568E+02)
 number of electron      51.9999997 magnetization 
 augmentation part        1.2257408 magnetization 

 DIPCOR: dipole corrections for dipol
 direction  1 min pos     1, direction  2 min pos     1, direction  3 min pos     1,
 dipolmoment           0.029116      0.753243     -0.270130 electrons x Angstroem
 Tr[quadrupol]       100.028652

 energy correction for charged system         0.000000 eV
 dipol+quadrupol energy correction           -0.002417 eV
 added-field ion interaction         -0.085842 eV  (added to PSCEN)


 Free energy of the ion-electron system (eV)
  ---------------------------------------------------
  alpha Z        PSCENC =         1.35724414
  Ewald energy   TEWEN  =      3957.29976010
  -Hartree energ DENC   =     -5101.74779792
  -exchange      EXHF   =       104.19969914
  -V(xc)+E(xc)   XCENC  =       133.65664091
  PAW double counting   =      3931.57557135    -3940.13543477
  entropy T*S    EENTRO =        -0.00000000
  eigenvalues    EBANDS =      -840.85840460
  atomic energy  EATOM  =      1612.77738675
  ---------------------------------------------------
  free energy    TOTEN  =      -141.87533490 eV

  energy without entropy =     -141.87533490  energy(sigma->0) =     -141.87533490
  exchange ACFDT corr.  =        -0.00000000  see jH, gK, PRB 81, 115126


--------------------------------------------------------------------------------------------------------




--------------------------------------- Iteration      1(   9)  ---------------------------------------


    POTLOK:  cpu time      0.8601: real time      0.8633
    SETDIJ:  cpu time      0.0031: real time      0.0031
    TRIAL :  cpu time      5.2181: real time      5.2484
    CORREC:  cpu time      0.0003: real time      0.0003
    CHARGE:  cpu time      0.1111: real time      0.1120
    --------------------------------------------
      LOOP:  cpu time      6.1927: real time      6.2273

 eigenvalue-minimisations  :     0
 total energy-change (2. order) :-0.9593010E+01  (-0.4270610E+01)
 number of electron      51.9999997 magnetization 
 augmentation part        1.2567082 magnetization 

 DIPCOR: dipole corrections for dipol
 direction  1 min pos     1, direction  2 min pos     1, direction  3 min pos     1,
 dipolmoment          -0.226058      0.703012     -0.345751 electrons x Angstroem
 Tr[quadrupol]        44.917518

 energy correction for charged system         0.000000 eV
 dipol+quadrupol energy correction           -0.002506 eV
 added-field ion interaction         -0.118903 eV  (added to PSCEN)


 Free energy of the ion-electron system (eV)
  ---------------------------------------------------
  alpha Z        PSCENC =         1.32409385
  Ewald energy   TEWEN  =      3957.29976010
  -Hartree energ DENC   =     -5230.07692456
  -exchange      EXHF   =       106.86681945
  -V(xc)+E(xc)   XCENC  =       136.20932136
  PAW double counting   =      3974.52401277    -3983.12826600
  entropy T*S    EENTRO =        -0.00000000
  eigenvalues    EBANDS =      -727.26454884
  atomic energy  EATOM  =      1612.77738675
  ---------------------------------------------------
  free energy    TOTEN  =      -151.46834511 eV

  energy without entropy =     -151.46834511  energy(sigma->0) =     -151.46834511
  exchange ACFDT corr.  =        -0.00000000  see jH, gK, PRB 81, 115126


--------------------------------------------------------------------------------------------------------




--------------------------------------- Iteration      1(  10)  ---------------------------------------


    POTLOK:  cpu time      0.8609: real time      0.8638
    SETDIJ:  cpu time      0.0047: real time      0.0048
    TRIAL :  cpu time      5.1689: real time      5.1983
    CORREC:  cpu time      0.0004: real time      0.0004
    CHARGE:  cpu time      0.1106: real time      0.1115
    --------------------------------------------
      LOOP:  cpu time      6.1457: real time      6.1792

 eigenvalue-minimisations  :     0
 total energy-change (2. order) :-0.1716830E+01  (-0.1556584E+01)
 number of electron      51.9999997 magnetization 
 augmentation part        1.2743534 magnetization 

 DIPCOR: dipole corrections for dipol
 direction  1 min pos     1, direction  2 min pos     1, direction  3 min pos     1,
 dipolmoment          -0.159850      0.721694     -0.396959 electrons x Angstroem
 Tr[quadrupol]        37.643783

 energy correction for charged system         0.000000 eV
 dipol+quadrupol energy correction           -0.002654 eV
 added-field ion interaction         -0.115056 eV  (added to PSCEN)


 Free energy of the ion-electron system (eV)
  ---------------------------------------------------
  alpha Z        PSCENC =         1.32779354
  Ewald energy   TEWEN  =      3957.29976010
  -Hartree energ DENC   =     -5262.37468496
  -exchange      EXHF   =       108.02920015
  -V(xc)+E(xc)   XCENC  =       137.51213649
  PAW double counting   =      3964.36381332    -3973.08624736
  entropy T*S    EENTRO =        -0.00000000
  eigenvalues    EBANDS =      -699.03433277
  atomic energy  EATOM  =      1612.77738675
  ---------------------------------------------------
  free energy    TOTEN  =      -153.18517473 eV

  energy without entropy =     -153.18517473  energy(sigma->0) =     -153.18517473
  exchange ACFDT corr.  =        -0.00000000  see jH, gK, PRB 81, 115126


--------------------------------------------------------------------------------------------------------




--------------------------------------- Iteration      1(  11)  ---------------------------------------


    POTLOK:  cpu time      0.8614: real time      0.8664
    SETDIJ:  cpu time      0.0030: real time      0.0030
    TRIAL :  cpu time      5.1774: real time      5.2076
    CORREC:  cpu time      0.0002: real time      0.0002
    CHARGE:  cpu time      0.1115: real time      0.1121
    --------------------------------------------
      LOOP:  cpu time      6.1537: real time      6.1895

 eigenvalue-minimisations  :     0
 total energy-change (2. order) :-0.9329957E+00  (-0.9929326E+00)
 number of electron      51.9999997 magnetization 
 augmentation part        1.2808389 magnetization 

 DIPCOR: dipole corrections for dipol
 direction  1 min pos     1, direction  2 min pos     1, direction  3 min pos     1,
 dipolmoment          -0.131168      0.748642     -0.400164 electrons x Angstroem
 Tr[quadrupol]        35.714753

 energy correction for charged system         0.000000 eV
 dipol+quadrupol energy correction           -0.002781 eV
 added-field ion interaction         -0.114115 eV  (added to PSCEN)


 Free energy of the ion-electron system (eV)
  ---------------------------------------------------
  alpha Z        PSCENC =         1.32860657
  Ewald energy   TEWEN  =      3957.29976010
  -Hartree energ DENC   =     -5266.28782021
  -exchange      EXHF   =       108.29403682
  -V(xc)+E(xc)   XCENC  =       137.79117958
  PAW double counting   =      3938.19534267    -3946.97796376
  entropy T*S    EENTRO =        -0.00000000
  eigenvalues    EBANDS =      -696.53869894
  atomic energy  EATOM  =      1612.77738675
  ---------------------------------------------------
  free energy    TOTEN  =      -154.11817042 eV

  energy without entropy =     -154.11817042  energy(sigma->0) =     -154.11817042
  exchange ACFDT corr.  =        -0.00000000  see jH, gK, PRB 81, 115126


--------------------------------------------------------------------------------------------------------




--------------------------------------- Iteration      1(  12)  ---------------------------------------


    POTLOK:  cpu time      0.8641: real time      0.8672
    SETDIJ:  cpu time      0.0024: real time      0.0024
    TRIAL :  cpu time      5.1724: real time      5.2014
    CORREC:  cpu time      0.0002: real time      0.0002
    CHARGE:  cpu time      0.1186: real time      0.1194
    --------------------------------------------
      LOOP:  cpu time      6.1578: real time      6.1908

 eigenvalue-minimisations  :     0
 total energy-change (2. order) :-0.6054379E+00  (-0.3289010E+00)
 number of electron      51.9999997 magnetization 
 augmentation part        1.2829575 magnetization 

 DIPCOR: dipole corrections for dipol
 direction  1 min pos     1, direction  2 min pos     1, direction  3 min pos     1,
 dipolmoment          -0.114940      0.766679     -0.383907 electrons x Angstroem
 Tr[quadrupol]        33.398958

 energy correction for charged system         0.000000 eV
 dipol+quadrupol energy correction           -0.002821 eV
 added-field ion interaction         -0.112791 eV  (added to PSCEN)


 Free energy of the ion-electron system (eV)
  ---------------------------------------------------
  alpha Z        PSCENC =         1.32989140
  Ewald energy   TEWEN  =      3957.29976010
  -Hartree energ DENC   =     -5264.18666192
  -exchange      EXHF   =       108.24136616
  -V(xc)+E(xc)   XCENC  =       137.69685184
  PAW double counting   =      3915.87868303    -3924.67756014
  entropy T*S    EENTRO =        -0.00000000
  eigenvalues    EBANDS =      -699.08332558
  atomic energy  EATOM  =      1612.77738675
  ---------------------------------------------------
  free energy    TOTEN  =      -154.72360836 eV

  energy without entropy =     -154.72360836  energy(sigma->0) =     -154.72360836
  exchange ACFDT corr.  =        -0.00000000  see jH, gK, PRB 81, 115126


--------------------------------------------------------------------------------------------------------




--------------------------------------- Iteration      1(  13)  ---------------------------------------


    POTLOK:  cpu time      0.8644: real time      0.8674
    SETDIJ:  cpu time      0.0031: real time      0.0032
    TRIAL :  cpu time      5.1388: real time      5.1691
    CORREC:  cpu time      0.0003: real time      0.0003
    CHARGE:  cpu time      0.1106: real time      0.1115
    --------------------------------------------
      LOOP:  cpu time      6.1319: real time      6.1679

 eigenvalue-minimisations  :     0
 total energy-change (2. order) :-0.1769781E+00  (-0.1002801E+00)
 number of electron      51.9999997 magnetization 
 augmentation part        1.2842835 magnetization 

 DIPCOR: dipole corrections for dipol
 direction  1 min pos     1, direction  2 min pos     1, direction  3 min pos     1,
 dipolmoment          -0.109491      0.767578     -0.372916 electrons x Angstroem
 Tr[quadrupol]        32.714145

 energy correction for charged system         0.000000 eV
 dipol+quadrupol energy correction           -0.002791 eV
 added-field ion interaction         -0.111515 eV  (added to PSCEN)


 Free energy of the ion-electron system (eV)
  ---------------------------------------------------
  alpha Z        PSCENC =         1.33119782
  Ewald energy   TEWEN  =      3957.29976010
  -Hartree energ DENC   =     -5262.50191830
  -exchange      EXHF   =       108.18939765
  -V(xc)+E(xc)   XCENC  =       137.62678923
  PAW double counting   =      3905.63359766    -3914.44133572
  entropy T*S    EENTRO =        -0.00000000
  eigenvalues    EBANDS =      -700.81546162
  atomic energy  EATOM  =      1612.77738675
  ---------------------------------------------------
  free energy    TOTEN  =      -154.90058642 eV

  energy without entropy =     -154.90058642  energy(sigma->0) =     -154.90058642
  exchange ACFDT corr.  =        -0.00000000  see jH, gK, PRB 81, 115126


--------------------------------------------------------------------------------------------------------




--------------------------------------- Iteration      1(  14)  ---------------------------------------


    POTLOK:  cpu time      0.8629: real time      0.8660
    SETDIJ:  cpu time      0.0025: real time      0.0025
    TRIAL :  cpu time      5.1823: real time      5.2123
    CORREC:  cpu time      0.0002: real time      0.0002
    CHARGE:  cpu time      0.1116: real time      0.1130
    --------------------------------------------
      LOOP:  cpu time      6.1598: real time      6.2049

 eigenvalue-minimisations  :     0
 total energy-change (2. order) :-0.5767696E-01  (-0.4898744E-01)
 number of electron      51.9999997 magnetization 
 augmentation part        1.2848572 magnetization 

 DIPCOR: dipole corrections for dipol
 direction  1 min pos     1, direction  2 min pos     1, direction  3 min pos     1,
 dipolmoment          -0.113505      0.757986     -0.368850 electrons x Angstroem
 Tr[quadrupol]        32.453851

 energy correction for charged system         0.000000 eV
 dipol+quadrupol energy correction           -0.002727 eV
 added-field ion interaction         -0.110862 eV  (added to PSCEN)


 Free energy of the ion-electron system (eV)
  ---------------------------------------------------
  alpha Z        PSCENC =         1.33191367
  Ewald energy   TEWEN  =      3957.29976010
  -Hartree energ DENC   =     -5263.66727612
  -exchange      EXHF   =       108.21045034
  -V(xc)+E(xc)   XCENC  =       137.65147333
  PAW double counting   =      3905.12399969    -3913.94264618
  entropy T*S    EENTRO =        -0.00000000
  eigenvalues    EBANDS =      -699.74332496
  atomic energy  EATOM  =      1612.77738675
  ---------------------------------------------------
  free energy    TOTEN  =      -154.95826338 eV

  energy without entropy =     -154.95826338  energy(sigma->0) =     -154.95826338
  exchange ACFDT corr.  =        -0.00000000  see jH, gK, PRB 81, 115126


--------------------------------------------------------------------------------------------------------




--------------------------------------- Iteration      1(  15)  ---------------------------------------


    POTLOK:  cpu time      0.8625: real time      0.8651
    SETDIJ:  cpu time      0.0036: real time      0.0036
    TRIAL :  cpu time      5.1737: real time      5.2032
    CORREC:  cpu time      0.0002: real time      0.0002
    CHARGE:  cpu time      0.1110: real time      0.1118
    --------------------------------------------
      LOOP:  cpu time      6.1513: real time      6.1842

 eigenvalue-minimisations  :     0
 total energy-change (2. order) :-0.3237647E-01  (-0.2557573E-01)
 number of electron      51.9999997 magnetization 
 augmentation part        1.2845962 magnetization 

 DIPCOR: dipole corrections for dipol
 direction  1 min pos     1, direction  2 min pos     1, direction  3 min pos     1,
 dipolmoment          -0.116319      0.749118     -0.368188 electrons x Angstroem
 Tr[quadrupol]        32.284173

 energy correction for charged system         0.000000 eV
 dipol+quadrupol energy correction           -0.002678 eV
 added-field ion interaction         -0.110326 eV  (added to PSCEN)


 Free energy of the ion-electron system (eV)
  ---------------------------------------------------
  alpha Z        PSCENC =         1.33250013
  Ewald energy   TEWEN  =      3957.29976010
  -Hartree energ DENC   =     -5264.88590499
  -exchange      EXHF   =       108.23420761
  -V(xc)+E(xc)   XCENC  =       137.67802332
  PAW double counting   =      3907.58524263    -3916.41077581
  entropy T*S    EENTRO =        -0.00000000
  eigenvalues    EBANDS =      -698.60107961
  atomic energy  EATOM  =      1612.77738675
  ---------------------------------------------------
  free energy    TOTEN  =      -154.99063985 eV

  energy without entropy =     -154.99063985  energy(sigma->0) =     -154.99063985
  exchange ACFDT corr.  =        -0.00000000  see jH, gK, PRB 81, 115126


--------------------------------------------------------------------------------------------------------




--------------------------------------- Iteration      1(  16)  ---------------------------------------


    POTLOK:  cpu time      0.8609: real time      0.8641
    SETDIJ:  cpu time      0.0049: real time      0.0049
    TRIAL :  cpu time      5.1809: real time      5.2110
    CORREC:  cpu time      0.0002: real time      0.0002
    CHARGE:  cpu time      0.1105: real time      0.1115
    --------------------------------------------
      LOOP:  cpu time      6.1577: real time      6.1920

 eigenvalue-minimisations  :     0
 total energy-change (2. order) :-0.1755950E-01  (-0.1196150E-01)
 number of electron      51.9999997 magnetization 
 augmentation part        1.2840451 magnetization 

 DIPCOR: dipole corrections for dipol
 direction  1 min pos     1, direction  2 min pos     1, direction  3 min pos     1,
 dipolmoment          -0.115763      0.744638     -0.368169 electrons x Angstroem
 Tr[quadrupol]        32.248793

 energy correction for charged system         0.000000 eV
 dipol+quadrupol energy correction           -0.002652 eV
 added-field ion interaction         -0.109813 eV  (added to PSCEN)


 Free energy of the ion-electron system (eV)
  ---------------------------------------------------
  alpha Z        PSCENC =         1.33303892
  Ewald energy   TEWEN  =      3957.29976010
  -Hartree energ DENC   =     -5264.88719026
  -exchange      EXHF   =       108.23136213
  -V(xc)+E(xc)   XCENC  =       137.67138621
  PAW double counting   =      3909.70990983    -3918.53668467
  entropy T*S    EENTRO =        -0.00000000
  eigenvalues    EBANDS =      -698.60716837
  atomic energy  EATOM  =      1612.77738675
  ---------------------------------------------------
  free energy    TOTEN  =      -155.00819935 eV

  energy without entropy =     -155.00819935  energy(sigma->0) =     -155.00819935
  exchange ACFDT corr.  =        -0.00000000  see jH, gK, PRB 81, 115126


--------------------------------------------------------------------------------------------------------




--------------------------------------- Iteration      1(  17)  ---------------------------------------


    POTLOK:  cpu time      0.8602: real time      0.8638
    SETDIJ:  cpu time      0.0033: real time      0.0033
    TRIAL :  cpu time      5.1850: real time      5.2141
    CORREC:  cpu time      0.0002: real time      0.0002
    CHARGE:  cpu time      0.1106: real time      0.1114
    --------------------------------------------
      LOOP:  cpu time      6.1595: real time      6.1930

 eigenvalue-minimisations  :     0
 total energy-change (2. order) :-0.8268058E-02  (-0.5182231E-02)
 number of electron      51.9999997 magnetization 
 augmentation part        1.2837659 magnetization 

 DIPCOR: dipole corrections for dipol
 direction  1 min pos     1, direction  2 min pos     1, direction  3 min pos     1,
 dipolmoment          -0.113538      0.743254     -0.367665 electrons x Angstroem
 Tr[quadrupol]        32.280451

 energy correction for charged system         0.000000 eV
 dipol+quadrupol energy correction           -0.002641 eV
 added-field ion interaction         -0.109356 eV  (added to PSCEN)


 Free energy of the ion-electron system (eV)
  ---------------------------------------------------
  alpha Z        PSCENC =         1.33350684
  Ewald energy   TEWEN  =      3957.29976010
  -Hartree energ DENC   =     -5264.33831887
  -exchange      EXHF   =       108.21795967
  -V(xc)+E(xc)   XCENC  =       137.65277505
  PAW double counting   =      3911.00886786    -3919.83434718
  entropy T*S    EENTRO =        -0.00000000
  eigenvalues    EBANDS =      -699.13405764
  atomic energy  EATOM  =      1612.77738675
  ---------------------------------------------------
  free energy    TOTEN  =      -155.01646741 eV

  energy without entropy =     -155.01646741  energy(sigma->0) =     -155.01646741
  exchange ACFDT corr.  =        -0.00000000  see jH, gK, PRB 81, 115126


--------------------------------------------------------------------------------------------------------




--------------------------------------- Iteration      1(  18)  ---------------------------------------


    POTLOK:  cpu time      0.8586: real time      0.8623
    SETDIJ:  cpu time      0.0029: real time      0.0029
    TRIAL :  cpu time      5.1632: real time      5.1923
    CORREC:  cpu time      0.0002: real time      0.0002
    CHARGE:  cpu time      0.1106: real time      0.1114
    --------------------------------------------
      LOOP:  cpu time      6.1360: real time      6.1696

 eigenvalue-minimisations  :     0
 total energy-change (2. order) :-0.3837412E-02  (-0.2599014E-02)
 number of electron      51.9999997 magnetization 
 augmentation part        1.2837502 magnetization 

 DIPCOR: dipole corrections for dipol
 direction  1 min pos     1, direction  2 min pos     1, direction  3 min pos     1,
 dipolmoment          -0.111663      0.742551     -0.366725 electrons x Angstroem
 Tr[quadrupol]        32.298026

 energy correction for charged system         0.000000 eV
 dipol+quadrupol energy correction           -0.002633 eV
 added-field ion interaction         -0.108984 eV  (added to PSCEN)


 Free energy of the ion-electron system (eV)
  ---------------------------------------------------
  alpha Z        PSCENC =         1.33388639
  Ewald energy   TEWEN  =      3957.29976010
  -Hartree energ DENC   =     -5264.07442094
  -exchange      EXHF   =       108.21214242
  -V(xc)+E(xc)   XCENC  =       137.64431427
  PAW double counting   =      3912.00909778    -3920.83387399
  entropy T*S    EENTRO =        -0.00000000
  eigenvalues    EBANDS =      -699.38859761
  atomic energy  EATOM  =      1612.77738675
  ---------------------------------------------------
  free energy    TOTEN  =      -155.02030482 eV

  energy without entropy =     -155.02030482  energy(sigma->0) =     -155.02030482
  exchange ACFDT corr.  =        -0.00000000  see jH, gK, PRB 81, 115126


--------------------------------------------------------------------------------------------------------




--------------------------------------- Iteration      1(  19)  ---------------------------------------


    POTLOK:  cpu time      0.8597: real time      0.8628
    SETDIJ:  cpu time      0.0025: real time      0.0025
    TRIAL :  cpu time      5.1752: real time      5.2053
    CORREC:  cpu time      0.0003: real time      0.0003
    CHARGE:  cpu time      0.1107: real time      0.1116
    --------------------------------------------
      LOOP:  cpu time      6.1487: real time      6.1827

 eigenvalue-minimisations  :     0
 total energy-change (2. order) :-0.2090781E-02  (-0.1464657E-02)
 number of electron      51.9999997 magnetization 
 augmentation part        1.2838038 magnetization 

 DIPCOR: dipole corrections for dipol
 direction  1 min pos     1, direction  2 min pos     1, direction  3 min pos     1,
 dipolmoment          -0.110703      0.741741     -0.365866 electrons x Angstroem
 Tr[quadrupol]        32.293986

 energy correction for charged system         0.000000 eV
 dipol+quadrupol energy correction           -0.002625 eV
 added-field ion interaction         -0.108728 eV  (added to PSCEN)


 Free energy of the ion-electron system (eV)
  ---------------------------------------------------
  alpha Z        PSCENC =         1.33414997
  Ewald energy   TEWEN  =      3957.29976010
  -Hartree energ DENC   =     -5264.11354161
  -exchange      EXHF   =       108.21327437
  -V(xc)+E(xc)   XCENC  =       137.64531653
  PAW double counting   =      3912.78507053    -3921.61000506
  entropy T*S    EENTRO =        -0.00000000
  eigenvalues    EBANDS =      -699.35380717
  atomic energy  EATOM  =      1612.77738675
  ---------------------------------------------------
  free energy    TOTEN  =      -155.02239560 eV

  energy without entropy =     -155.02239560  energy(sigma->0) =     -155.02239560
  exchange ACFDT corr.  =        -0.00000000  see jH, gK, PRB 81, 115126


--------------------------------------------------------------------------------------------------------




--------------------------------------- Iteration      1(  20)  ---------------------------------------


    POTLOK:  cpu time      0.8571: real time      0.8603
    SETDIJ:  cpu time      0.0031: real time      0.0031
    TRIAL :  cpu time      5.1762: real time      5.2059
    CORREC:  cpu time      0.0002: real time      0.0002
    CHARGE:  cpu time      0.1106: real time      0.1114
    --------------------------------------------
      LOOP:  cpu time      6.1475: real time      6.1812

 eigenvalue-minimisations  :     0
 total energy-change (2. order) :-0.1224940E-02  (-0.8710009E-03)
 number of electron      51.9999997 magnetization 
 augmentation part        1.2838345 magnetization 

 DIPCOR: dipole corrections for dipol
 direction  1 min pos     1, direction  2 min pos     1, direction  3 min pos     1,
 dipolmoment          -0.110316      0.740828     -0.365270 electrons x Angstroem
 Tr[quadrupol]        32.287340

 energy correction for charged system         0.000000 eV
 dipol+quadrupol energy correction           -0.002618 eV
 added-field ion interaction         -0.108553 eV  (added to PSCEN)


 Free energy of the ion-electron system (eV)
  ---------------------------------------------------
  alpha Z        PSCENC =         1.33433247
  Ewald energy   TEWEN  =      3957.29976010
  -Hartree energ DENC   =     -5264.18969046
  -exchange      EXHF   =       108.21493043
  -V(xc)+E(xc)   XCENC  =       137.64732359
  PAW double counting   =      3913.23589460    -3922.06110261
  entropy T*S    EENTRO =        -0.00000000
  eigenvalues    EBANDS =      -699.28245543
  atomic energy  EATOM  =      1612.77738675
  ---------------------------------------------------
  free energy    TOTEN  =      -155.02362054 eV

  energy without entropy =     -155.02362054  energy(sigma->0) =     -155.02362054
  exchange ACFDT corr.  =        -0.00000000  see jH, gK, PRB 81, 115126


--------------------------------------------------------------------------------------------------------




--------------------------------------- Iteration      1(  21)  ---------------------------------------


    POTLOK:  cpu time      0.8649: real time      0.8681
    SETDIJ:  cpu time      0.0026: real time      0.0026
    TRIAL :  cpu time      5.1726: real time      5.2030
    CORREC:  cpu time      0.0001: real time      0.0001
    CHARGE:  cpu time      0.1107: real time      0.1115
    --------------------------------------------
      LOOP:  cpu time      6.1512: real time      6.1856

 eigenvalue-minimisations  :     0
 total energy-change (2. order) :-0.7499581E-03  (-0.5537473E-03)
 number of electron      51.9999997 magnetization 
 augmentation part        1.2838414 magnetization 

 DIPCOR: dipole corrections for dipol
 direction  1 min pos     1, direction  2 min pos     1, direction  3 min pos     1,
 dipolmoment          -0.110066      0.740073     -0.364927 electrons x Angstroem
 Tr[quadrupol]        32.286405

 energy correction for charged system         0.000000 eV
 dipol+quadrupol energy correction           -0.002613 eV
 added-field ion interaction         -0.108426 eV  (added to PSCEN)


 Free energy of the ion-electron system (eV)
  ---------------------------------------------------
  alpha Z        PSCENC =         1.33446469
  Ewald energy   TEWEN  =      3957.29976010
  -Hartree energ DENC   =     -5264.19352517
  -exchange      EXHF   =       108.21486207
  -V(xc)+E(xc)   XCENC  =       137.64701370
  PAW double counting   =      3913.41554339    -3922.24081606
  entropy T*S    EENTRO =        -0.00000000
  eigenvalues    EBANDS =      -699.27905997
  atomic energy  EATOM  =      1612.77738675
  ---------------------------------------------------
  free energy    TOTEN  =      -155.02437050 eV

  energy without entropy =     -155.02437050  energy(sigma->0) =     -155.02437050
  exchange ACFDT corr.  =        -0.00000000  see jH, gK, PRB 81, 115126


--------------------------------------------------------------------------------------------------------




--------------------------------------- Iteration      1(  22)  ---------------------------------------


    POTLOK:  cpu time      0.8587: real time      0.8618
    SETDIJ:  cpu time      0.0028: real time      0.0028
    TRIAL :  cpu time      5.1864: real time      5.2163
    CORREC:  cpu time      0.0003: real time      0.0003
    CHARGE:  cpu time      0.1107: real time      0.1116
    --------------------------------------------
      LOOP:  cpu time      6.1591: real time      6.1930

 eigenvalue-minimisations  :     0
 total energy-change (2. order) :-0.4844020E-03  (-0.3600686E-03)
 number of electron      51.9999997 magnetization 
 augmentation part        1.2838472 magnetization 

 DIPCOR: dipole corrections for dipol
 direction  1 min pos     1, direction  2 min pos     1, direction  3 min pos     1,
 dipolmoment          -0.109779      0.739569     -0.364711 electrons x Angstroem
 Tr[quadrupol]        32.288918

 energy correction for charged system         0.000000 eV
 dipol+quadrupol energy correction           -0.002609 eV
 added-field ion interaction         -0.108326 eV  (added to PSCEN)


 Free energy of the ion-electron system (eV)
  ---------------------------------------------------
  alpha Z        PSCENC =         1.33456820
  Ewald energy   TEWEN  =      3957.29976010
  -Hartree energ DENC   =     -5264.15547040
  -exchange      EXHF   =       108.21398940
  -V(xc)+E(xc)   XCENC  =       137.64559532
  PAW double counting   =      3913.45703049    -3922.28223302
  entropy T*S    EENTRO =        -0.00000000
  eigenvalues    EBANDS =      -699.31548174
  atomic energy  EATOM  =      1612.77738675
  ---------------------------------------------------
  free energy    TOTEN  =      -155.02485490 eV

  energy without entropy =     -155.02485490  energy(sigma->0) =     -155.02485490
  exchange ACFDT corr.  =        -0.00000000  see jH, gK, PRB 81, 115126


--------------------------------------------------------------------------------------------------------




--------------------------------------- Iteration      1(  23)  ---------------------------------------


    POTLOK:  cpu time      0.8599: real time      0.8630
    SETDIJ:  cpu time      0.0024: real time      0.0024
    TRIAL :  cpu time      5.1769: real time      5.2062
    CORREC:  cpu time      0.0002: real time      0.0002
    CHARGE:  cpu time      0.1109: real time      0.1118
    --------------------------------------------
      LOOP:  cpu time      6.1508: real time      6.1861

 eigenvalue-minimisations  :     0
 total energy-change (2. order) :-0.3211935E-03  (-0.2349971E-03)
 number of electron      51.9999997 magnetization 
 augmentation part        1.2838575 magnetization 

 DIPCOR: dipole corrections for dipol
 direction  1 min pos     1, direction  2 min pos     1, direction  3 min pos     1,
 dipolmoment          -0.109494      0.739240     -0.364560 electrons x Angstroem
 Tr[quadrupol]        32.290595

 energy correction for charged system         0.000000 eV
 dipol+quadrupol energy correction           -0.002606 eV
 added-field ion interaction         -0.108247 eV  (added to PSCEN)


 Free energy of the ion-electron system (eV)
  ---------------------------------------------------
  alpha Z        PSCENC =         1.33464987
  Ewald energy   TEWEN  =      3957.29976010
  -Hartree energ DENC   =     -5264.13123149
  -exchange      EXHF   =       108.21356695
  -V(xc)+E(xc)   XCENC  =       137.64499293
  PAW double counting   =      3913.46840016    -3922.29355703
  entropy T*S    EENTRO =        -0.00000000
  eigenvalues    EBANDS =      -699.33914435
  atomic energy  EATOM  =      1612.77738675
  ---------------------------------------------------
  free energy    TOTEN  =      -155.02517609 eV

  energy without entropy =     -155.02517609  energy(sigma->0) =     -155.02517609
  exchange ACFDT corr.  =        -0.00000000  see jH, gK, PRB 81, 115126


--------------------------------------------------------------------------------------------------------




--------------------------------------- Iteration      1(  24)  ---------------------------------------


    POTLOK:  cpu time      0.8599: real time      0.8629
    SETDIJ:  cpu time      0.0030: real time      0.0030
    TRIAL :  cpu time      5.1855: real time      5.2157
    CORREC:  cpu time      0.0003: real time      0.0005
    CHARGE:  cpu time      0.1108: real time      0.1115
    --------------------------------------------
      LOOP:  cpu time      6.1600: real time      6.2043

 eigenvalue-minimisations  :     0
 total energy-change (2. order) :-0.2131307E-03  (-0.1585627E-03)
 number of electron      51.9999997 magnetization 
 augmentation part        1.2838677 magnetization 

 DIPCOR: dipole corrections for dipol
 direction  1 min pos     1, direction  2 min pos     1, direction  3 min pos     1,
 dipolmoment          -0.109270      0.739021     -0.364450 electrons x Angstroem
 Tr[quadrupol]        32.291130

 energy correction for charged system         0.000000 eV
 dipol+quadrupol energy correction           -0.002605 eV
 added-field ion interaction         -0.108191 eV  (added to PSCEN)


 Free energy of the ion-electron system (eV)
  ---------------------------------------------------
  alpha Z        PSCENC =         1.33470798
  Ewald energy   TEWEN  =      3957.29976010
  -Hartree energ DENC   =     -5264.12646239
  -exchange      EXHF   =       108.21364935
  -V(xc)+E(xc)   XCENC  =       137.64509082
  PAW double counting   =      3913.48281955    -3922.30798575
  entropy T*S    EENTRO =        -0.00000000
  eigenvalues    EBANDS =      -699.34435564
  atomic energy  EATOM  =      1612.77738675
  ---------------------------------------------------
  free energy    TOTEN  =      -155.02538922 eV

  energy without entropy =     -155.02538922  energy(sigma->0) =     -155.02538922
  exchange ACFDT corr.  =        -0.00000000  see jH, gK, PRB 81, 115126


--------------------------------------------------------------------------------------------------------




--------------------------------------- Iteration      1(  25)  ---------------------------------------


    POTLOK:  cpu time      0.8606: real time      0.8637
    SETDIJ:  cpu time      0.0023: real time      0.0023
    TRIAL :  cpu time      5.1655: real time      5.1946
    CORREC:  cpu time      0.0002: real time      0.0002
    CHARGE:  cpu time      0.1106: real time      0.1119
    --------------------------------------------
      LOOP:  cpu time      6.1395: real time      6.1729

 eigenvalue-minimisations  :     0
 total energy-change (2. order) :-0.1443272E-03  (-0.1105676E-03)
 number of electron      51.9999997 magnetization 
 augmentation part        1.2838760 magnetization 

 DIPCOR: dipole corrections for dipol
 direction  1 min pos     1, direction  2 min pos     1, direction  3 min pos     1,
 dipolmoment          -0.109079      0.738866     -0.364368 electrons x Angstroem
 Tr[quadrupol]        32.291472

 energy correction for charged system         0.000000 eV
 dipol+quadrupol energy correction           -0.002603 eV
 added-field ion interaction         -0.108145 eV  (added to PSCEN)


 Free energy of the ion-electron system (eV)
  ---------------------------------------------------
  alpha Z        PSCENC =         1.33475524
  Ewald energy   TEWEN  =      3957.29976010
  -Hartree energ DENC   =     -5264.12557592
  -exchange      EXHF   =       108.21380576
  -V(xc)+E(xc)   XCENC  =       137.64513516
  PAW double counting   =      3913.49502910    -3922.32021806
  entropy T*S    EENTRO =        -0.00000000
  eigenvalues    EBANDS =      -699.34561169
  atomic energy  EATOM  =      1612.77738675
  ---------------------------------------------------
  free energy    TOTEN  =      -155.02553355 eV

  energy without entropy =     -155.02553355  energy(sigma->0) =     -155.02553355
  exchange ACFDT corr.  =        -0.00000000  see jH, gK, PRB 81, 115126


--------------------------------------------------------------------------------------------------------




--------------------------------------- Iteration      1(  26)  ---------------------------------------


    POTLOK:  cpu time      0.8604: real time      0.8642
    SETDIJ:  cpu time      0.0025: real time      0.0025
    TRIAL :  cpu time      5.1799: real time      5.2093
    CORREC:  cpu time      0.0001: real time      0.0001
    CHARGE:  cpu time      0.1108: real time      0.1116
    --------------------------------------------
      LOOP:  cpu time      6.1538: real time      6.1879

 eigenvalue-minimisations  :     0
 total energy-change (2. order) :-0.1013526E-03  (-0.8055280E-04)
 number of electron      51.9999997 magnetization 
 augmentation part        1.2838840 magnetization 

 DIPCOR: dipole corrections for dipol
 direction  1 min pos     1, direction  2 min pos     1, direction  3 min pos     1,
 dipolmoment          -0.108943      0.738765     -0.364313 electrons x Angstroem
 Tr[quadrupol]        32.291881

 energy correction for charged system         0.000000 eV
 dipol+quadrupol energy correction           -0.002603 eV
 added-field ion interaction         -0.108114 eV  (added to PSCEN)


 Free energy of the ion-electron system (eV)
  ---------------------------------------------------
  alpha Z        PSCENC =         1.33478632
  Ewald energy   TEWEN  =      3957.29976010
  -Hartree energ DENC   =     -5264.12324356
  -exchange      EXHF   =       108.21390504
  -V(xc)+E(xc)   XCENC  =       137.64518823
  PAW double counting   =      3913.50369418    -3922.32889553
  entropy T*S    EENTRO =        -0.00000000
  eigenvalues    EBANDS =      -699.34821645
  atomic energy  EATOM  =      1612.77738675
  ---------------------------------------------------
  free energy    TOTEN  =      -155.02563490 eV

  energy without entropy =     -155.02563490  energy(sigma->0) =     -155.02563490
  exchange ACFDT corr.  =        -0.00000000  see jH, gK, PRB 81, 115126


--------------------------------------------------------------------------------------------------------




--------------------------------------- Iteration      1(  27)  ---------------------------------------


    POTLOK:  cpu time      0.8600: real time      0.8632
    SETDIJ:  cpu time      0.0030: real time      0.0030
    TRIAL :  cpu time      5.1773: real time      5.2108
    CORREC:  cpu time      0.0003: real time      0.0003
    CHARGE:  cpu time      0.1109: real time      0.1119
    --------------------------------------------
      LOOP:  cpu time      6.1516: real time      6.1893

 eigenvalue-minimisations  :     0
 total energy-change (2. order) :-0.7329174E-04  (-0.6100086E-04)
 number of electron      51.9999997 magnetization 
 augmentation part        1.2838915 magnetization 

 DIPCOR: dipole corrections for dipol
 direction  1 min pos     1, direction  2 min pos     1, direction  3 min pos     1,
 dipolmoment          -0.108817      0.738719     -0.364284 electrons x Angstroem
 Tr[quadrupol]        32.292278

 energy correction for charged system         0.000000 eV
 dipol+quadrupol energy correction           -0.002602 eV
 added-field ion interaction         -0.108091 eV  (added to PSCEN)


 Free energy of the ion-electron system (eV)
  ---------------------------------------------------
  alpha Z        PSCENC =         1.33480987
  Ewald energy   TEWEN  =      3957.29976010
  -Hartree energ DENC   =     -5264.11990427
  -exchange      EXHF   =       108.21396433
  -V(xc)+E(xc)   XCENC  =       137.64528316
  PAW double counting   =      3913.51251008    -3922.33771705
  entropy T*S    EENTRO =        -0.00000000
  eigenvalues    EBANDS =      -699.35180117
  atomic energy  EATOM  =      1612.77738675
  ---------------------------------------------------
  free energy    TOTEN  =      -155.02570820 eV

  energy without entropy =     -155.02570820  energy(sigma->0) =     -155.02570820
  exchange ACFDT corr.  =        -0.00000000  see jH, gK, PRB 81, 115126


--------------------------------------------------------------------------------------------------------




--------------------------------------- Iteration      1(  28)  ---------------------------------------


    POTLOK:  cpu time      0.8595: real time      0.8631
    SETDIJ:  cpu time      0.0023: real time      0.0024
    TRIAL :  cpu time      5.1452: real time      5.1795
    CORREC:  cpu time      0.0003: real time      0.0003
    CHARGE:  cpu time      0.1105: real time      0.1117
    --------------------------------------------
      LOOP:  cpu time      6.1181: real time      6.1572

 eigenvalue-minimisations  :     0
 total energy-change (2. order) :-0.5669531E-04  (-0.4671366E-04)
 number of electron      51.9999997 magnetization 
 augmentation part        1.2838993 magnetization 

 DIPCOR: dipole corrections for dipol
 direction  1 min pos     1, direction  2 min pos     1, direction  3 min pos     1,
 dipolmoment          -0.108732      0.738707     -0.364264 electrons x Angstroem
 Tr[quadrupol]        32.292938

 energy correction for charged system         0.000000 eV
 dipol+quadrupol energy correction           -0.002602 eV
 added-field ion interaction         -0.108079 eV  (added to PSCEN)


 Free energy of the ion-electron system (eV)
  ---------------------------------------------------
  alpha Z        PSCENC =         1.33482267
  Ewald energy   TEWEN  =      3957.29976010
  -Hartree energ DENC   =     -5264.11527405
  -exchange      EXHF   =       108.21399285
  -V(xc)+E(xc)   XCENC  =       137.64520020
  PAW double counting   =      3913.52191495    -3922.34712678
  entropy T*S    EENTRO =        -0.00000000
  eigenvalues    EBANDS =      -699.35644159
  atomic energy  EATOM  =      1612.77738675
  ---------------------------------------------------
  free energy    TOTEN  =      -155.02576489 eV

  energy without entropy =     -155.02576489  energy(sigma->0) =     -155.02576489
  exchange ACFDT corr.  =        -0.00000000  see jH, gK, PRB 81, 115126


--------------------------------------------------------------------------------------------------------




--------------------------------------- Iteration      1(  29)  ---------------------------------------


    POTLOK:  cpu time      0.8598: real time      0.8631
    SETDIJ:  cpu time      0.0024: real time      0.0024
    TRIAL :  cpu time      5.1624: real time      5.1964
    CORREC:  cpu time      0.0001: real time      0.0003
    CHARGE:  cpu time      0.1109: real time      0.1116
    --------------------------------------------
      LOOP:  cpu time      6.1357: real time      6.1739

 eigenvalue-minimisations  :     0
 total energy-change (2. order) :-0.4214539E-04  (-0.3613104E-04)
 number of electron      51.9999997 magnetization 
 augmentation part        1.2839041 magnetization 

 DIPCOR: dipole corrections for dipol
 direction  1 min pos     1, direction  2 min pos     1, direction  3 min pos     1,
 dipolmoment          -0.108640      0.738716     -0.364268 electrons x Angstroem
 Tr[quadrupol]        32.293213

 energy correction for charged system         0.000000 eV
 dipol+quadrupol energy correction           -0.002602 eV
 added-field ion interaction         -0.108067 eV  (added to PSCEN)


 Free energy of the ion-electron system (eV)
  ---------------------------------------------------
  alpha Z        PSCENC =         1.33483448
  Ewald energy   TEWEN  =      3957.29976010
  -Hartree energ DENC   =     -5264.11425814
  -exchange      EXHF   =       108.21408462
  -V(xc)+E(xc)   XCENC  =       137.64533957
  PAW double counting   =      3913.53365445    -3922.35887520
  entropy T*S    EENTRO =        -0.00000000
  eigenvalues    EBANDS =      -699.35773366
  atomic energy  EATOM  =      1612.77738675
  ---------------------------------------------------
  free energy    TOTEN  =      -155.02580704 eV

  energy without entropy =     -155.02580704  energy(sigma->0) =     -155.02580704
  exchange ACFDT corr.  =        -0.00000000  see jH, gK, PRB 81, 115126


--------------------------------------------------------------------------------------------------------




--------------------------------------- Iteration      1(  30)  ---------------------------------------


    POTLOK:  cpu time      0.8589: real time      0.8627
    SETDIJ:  cpu time      0.0024: real time      0.0024
    TRIAL :  cpu time      5.1542: real time      5.1890
    CORREC:  cpu time      0.0004: real time      0.0004
    CHARGE:  cpu time      0.1104: real time      0.1113
    --------------------------------------------
      LOOP:  cpu time      6.1265: real time      6.1660

 eigenvalue-minimisations  :     0
 total energy-change (2. order) :-0.3438622E-04  (-0.2824004E-04)
 number of electron      51.9999997 magnetization 
 augmentation part        1.2839077 magnetization 

 DIPCOR: dipole corrections for dipol
 direction  1 min pos     1, direction  2 min pos     1, direction  3 min pos     1,
 dipolmoment          -0.108597      0.738733     -0.364241 electrons x Angstroem
 Tr[quadrupol]        32.293663

 energy correction for charged system         0.000000 eV
 dipol+quadrupol energy correction           -0.002602 eV
 added-field ion interaction         -0.108061 eV  (added to PSCEN)


 Free energy of the ion-electron system (eV)
  ---------------------------------------------------
  alpha Z        PSCENC =         1.33484000
  Ewald energy   TEWEN  =      3957.29976010
  -Hartree energ DENC   =     -5264.11166470
  -exchange      EXHF   =       108.21411314
  -V(xc)+E(xc)   XCENC  =       137.64533345
  PAW double counting   =      3913.54002620    -3922.36525141
  entropy T*S    EENTRO =        -0.00000000
  eigenvalues    EBANDS =      -699.36038495
  atomic energy  EATOM  =      1612.77738675
  ---------------------------------------------------
  free energy    TOTEN  =      -155.02584142 eV

  energy without entropy =     -155.02584142  energy(sigma->0) =     -155.02584142
  exchange ACFDT corr.  =        -0.00000000  see jH, gK, PRB 81, 115126


--------------------------------------------------------------------------------------------------------




--------------------------------------- Iteration      1(  31)  ---------------------------------------


    POTLOK:  cpu time      0.8580: real time      0.8616
    SETDIJ:  cpu time      0.0027: real time      0.0027
    TRIAL :  cpu time      5.1495: real time      5.1839
    CORREC:  cpu time      0.0001: real time      0.0001
    CHARGE:  cpu time      0.1108: real time      0.1116
    --------------------------------------------
      LOOP:  cpu time      6.1216: real time      6.1605

 eigenvalue-minimisations  :     0
 total energy-change (2. order) :-0.2512279E-04  (-0.2211272E-04)
 number of electron      51.9999997 magnetization 
 augmentation part        1.2839095 magnetization 

 DIPCOR: dipole corrections for dipol
 direction  1 min pos     1, direction  2 min pos     1, direction  3 min pos     1,
 dipolmoment          -0.108541      0.738725     -0.364244 electrons x Angstroem
 Tr[quadrupol]        32.293905

 energy correction for charged system         0.000000 eV
 dipol+quadrupol energy correction           -0.002602 eV
 added-field ion interaction         -0.108054 eV  (added to PSCEN)


 Free energy of the ion-electron system (eV)
  ---------------------------------------------------
  alpha Z        PSCENC =         1.33484802
  Ewald energy   TEWEN  =      3957.29976010
  -Hartree energ DENC   =     -5264.10955120
  -exchange      EXHF   =       108.21414085
  -V(xc)+E(xc)   XCENC  =       137.64534890
  PAW double counting   =      3913.54450641    -3922.36973587
  entropy T*S    EENTRO =        -0.00000000
  eigenvalues    EBANDS =      -699.36257051
  atomic energy  EATOM  =      1612.77738675
  ---------------------------------------------------
  free energy    TOTEN  =      -155.02586655 eV

  energy without entropy =     -155.02586655  energy(sigma->0) =     -155.02586655
  exchange ACFDT corr.  =        -0.00000000  see jH, gK, PRB 81, 115126


--------------------------------------------------------------------------------------------------------




--------------------------------------- Iteration      1(  32)  ---------------------------------------


    POTLOK:  cpu time      0.8598: real time      0.8634
    SETDIJ:  cpu time      0.0022: real time      0.0022
    TRIAL :  cpu time      5.1694: real time      5.2003
    CORREC:  cpu time      0.0001: real time      0.0001
    CHARGE:  cpu time      0.1107: real time      0.1115
    --------------------------------------------
      LOOP:  cpu time      6.1427: real time      6.1781

 eigenvalue-minimisations  :     0
 total energy-change (2. order) :-0.2076812E-04  (-0.1730367E-04)
 number of electron      51.9999997 magnetization 
 augmentation part        1.2839109 magnetization 

 DIPCOR: dipole corrections for dipol
 direction  1 min pos     1, direction  2 min pos     1, direction  3 min pos     1,
 dipolmoment          -0.108492      0.738735     -0.364217 electrons x Angstroem
 Tr[quadrupol]        32.294177

 energy correction for charged system         0.000000 eV
 dipol+quadrupol energy correction           -0.002602 eV
 added-field ion interaction         -0.108046 eV  (added to PSCEN)


 Free energy of the ion-electron system (eV)
  ---------------------------------------------------
  alpha Z        PSCENC =         1.33485524
  Ewald energy   TEWEN  =      3957.29976010
  -Hartree energ DENC   =     -5264.10842902
  -exchange      EXHF   =       108.21416823
  -V(xc)+E(xc)   XCENC  =       137.64536841
  PAW double counting   =      3913.54576698    -3922.37099966
  entropy T*S    EENTRO =        -0.00000000
  eigenvalues    EBANDS =      -699.36376435
  atomic energy  EATOM  =      1612.77738675
  ---------------------------------------------------
  free energy    TOTEN  =      -155.02588731 eV

  energy without entropy =     -155.02588731  energy(sigma->0) =     -155.02588731
  exchange ACFDT corr.  =        -0.00000000  see jH, gK, PRB 81, 115126


--------------------------------------------------------------------------------------------------------




--------------------------------------- Iteration      1(  33)  ---------------------------------------


    POTLOK:  cpu time      0.8599: real time      0.8634
    SETDIJ:  cpu time      0.0026: real time      0.0026
    TRIAL :  cpu time      5.1688: real time      5.1989
    CORREC:  cpu time      0.0002: real time      0.0004
    CHARGE:  cpu time      0.1111: real time      0.1117
    --------------------------------------------
      LOOP:  cpu time      6.1535: real time      6.1896

 eigenvalue-minimisations  :     0
 total energy-change (2. order) :-0.1293118E-04  (-0.1355460E-04)
 number of electron      51.9999997 magnetization 
 augmentation part        1.2839112 magnetization 

 DIPCOR: dipole corrections for dipol
 direction  1 min pos     1, direction  2 min pos     1, direction  3 min pos     1,
 dipolmoment          -0.108467      0.738720     -0.364216 electrons x Angstroem
 Tr[quadrupol]        32.294289

 energy correction for charged system         0.000000 eV
 dipol+quadrupol energy correction           -0.002602 eV
 added-field ion interaction         -0.108042 eV  (added to PSCEN)


 Free energy of the ion-electron system (eV)
  ---------------------------------------------------
  alpha Z        PSCENC =         1.33485967
  Ewald energy   TEWEN  =      3957.29976010
  -Hartree energ DENC   =     -5264.10729667
  -exchange      EXHF   =       108.21419746
  -V(xc)+E(xc)   XCENC  =       137.64537851
  PAW double counting   =      3913.54578298    -3922.37101801
  entropy T*S    EENTRO =        -0.00000000
  eigenvalues    EBANDS =      -699.36495104
  atomic energy  EATOM  =      1612.77738675
  ---------------------------------------------------
  free energy    TOTEN  =      -155.02590025 eV

  energy without entropy =     -155.02590025  energy(sigma->0) =     -155.02590025
  exchange ACFDT corr.  =        -0.00000000  see jH, gK, PRB 81, 115126


--------------------------------------------------------------------------------------------------------




--------------------------------------- Iteration      1(  34)  ---------------------------------------


    POTLOK:  cpu time      0.8579: real time      0.8611
    SETDIJ:  cpu time      0.0031: real time      0.0031
    TRIAL :  cpu time      5.1607: real time      5.1921
    CORREC:  cpu time      0.0002: real time      0.0002
    CHARGE:  cpu time      0.1108: real time      0.1116
    --------------------------------------------
      LOOP:  cpu time      6.1434: real time      6.1791

 eigenvalue-minimisations  :     0
 total energy-change (2. order) :-0.1301525E-04  (-0.1069632E-04)
 number of electron      51.9999997 magnetization 
 augmentation part        1.2839114 magnetization 

 DIPCOR: dipole corrections for dipol
 direction  1 min pos     1, direction  2 min pos     1, direction  3 min pos     1,
 dipolmoment          -0.108423      0.738731     -0.364186 electrons x Angstroem
 Tr[quadrupol]        32.294482

 energy correction for charged system         0.000000 eV
 dipol+quadrupol energy correction           -0.002602 eV
 added-field ion interaction         -0.108036 eV  (added to PSCEN)


 Free energy of the ion-electron system (eV)
  ---------------------------------------------------
  alpha Z        PSCENC =         1.33486591
  Ewald energy   TEWEN  =      3957.29976010
  -Hartree energ DENC   =     -5264.10651864
  -exchange      EXHF   =       108.21421754
  -V(xc)+E(xc)   XCENC  =       137.64543445
  PAW double counting   =      3913.54407255    -3922.36930864
  entropy T*S    EENTRO =        -0.00000000
  eigenvalues    EBANDS =      -699.36582329
  atomic energy  EATOM  =      1612.77738675
  ---------------------------------------------------
  free energy    TOTEN  =      -155.02591326 eV

  energy without entropy =     -155.02591326  energy(sigma->0) =     -155.02591326
  exchange ACFDT corr.  =        -0.00000000  see jH, gK, PRB 81, 115126


--------------------------------------------------------------------------------------------------------




--------------------------------------- Iteration      1(  35)  ---------------------------------------


    POTLOK:  cpu time      0.8580: real time      0.8613
    SETDIJ:  cpu time      0.0030: real time      0.0030
    TRIAL :  cpu time      5.1694: real time      5.2002
    CORREC:  cpu time      0.0003: real time      0.0004
    CHARGE:  cpu time      0.1111: real time      0.1117
    --------------------------------------------
      LOOP:  cpu time      6.1421: real time      6.1769

 eigenvalue-minimisations  :     0
 total energy-change (2. order) :-0.7857609E-05  (-0.8580578E-05)
 number of electron      51.9999997 magnetization 
 augmentation part        1.2839117 magnetization 

 DIPCOR: dipole corrections for dipol
 direction  1 min pos     1, direction  2 min pos     1, direction  3 min pos     1,
 dipolmoment          -0.108397      0.738711     -0.364187 electrons x Angstroem
 Tr[quadrupol]        32.294605

 energy correction for charged system         0.000000 eV
 dipol+quadrupol energy correction           -0.002601 eV
 added-field ion interaction         -0.108030 eV  (added to PSCEN)


 Free energy of the ion-electron system (eV)
  ---------------------------------------------------
  alpha Z        PSCENC =         1.33487238
  Ewald energy   TEWEN  =      3957.29976010
  -Hartree energ DENC   =     -5264.10499999
  -exchange      EXHF   =       108.21422894
  -V(xc)+E(xc)   XCENC  =       137.64532915
  PAW double counting   =      3913.54221632    -3922.36745325
  entropy T*S    EENTRO =        -0.00000000
  eigenvalues    EBANDS =      -699.36726153
  atomic energy  EATOM  =      1612.77738675
  ---------------------------------------------------
  free energy    TOTEN  =      -155.02592112 eV

  energy without entropy =     -155.02592112  energy(sigma->0) =     -155.02592112
  exchange ACFDT corr.  =        -0.00000000  see jH, gK, PRB 81, 115126


--------------------------------------------------------------------------------------------------------




--------------------------------------- Iteration      1(  36)  ---------------------------------------


    POTLOK:  cpu time      0.8609: real time      0.8644
    SETDIJ:  cpu time      0.0025: real time      0.0025
    TRIAL :  cpu time      5.1754: real time      5.2057
    CORREC:  cpu time      0.0002: real time      0.0003
    CHARGE:  cpu time      0.1114: real time      0.1125
    --------------------------------------------
      LOOP:  cpu time      6.1506: real time      6.1857

 eigenvalue-minimisations  :     0
 total energy-change (2. order) :-0.8982473E-05  (-0.7066136E-05)
 number of electron      51.9999997 magnetization 
 augmentation part        1.2839111 magnetization 

 DIPCOR: dipole corrections for dipol
 direction  1 min pos     1, direction  2 min pos     1, direction  3 min pos     1,
 dipolmoment          -0.108379      0.738744     -0.364159 electrons x Angstroem
 Tr[quadrupol]        32.294566

 energy correction for charged system         0.000000 eV
 dipol+quadrupol energy correction           -0.002602 eV
 added-field ion interaction         -0.108030 eV  (added to PSCEN)


 Free energy of the ion-electron system (eV)
  ---------------------------------------------------
  alpha Z        PSCENC =         1.33487219
  Ewald energy   TEWEN  =      3957.29976010
  -Hartree energ DENC   =     -5264.10630019
  -exchange      EXHF   =       108.21427952
  -V(xc)+E(xc)   XCENC  =       137.64554524
  PAW double counting   =      3913.54148096    -3922.36671924
  entropy T*S    EENTRO =        -0.00000000
  eigenvalues    EBANDS =      -699.36623544
  atomic energy  EATOM  =      1612.77738675
  ---------------------------------------------------
  free energy    TOTEN  =      -155.02593010 eV

  energy without entropy =     -155.02593010  energy(sigma->0) =     -155.02593010
  exchange ACFDT corr.  =        -0.00000000  see jH, gK, PRB 81, 115126


--------------------------------------------------------------------------------------------------------




--------------------------------------- Iteration      1(  37)  ---------------------------------------


    POTLOK:  cpu time      0.8592: real time      0.8621
    SETDIJ:  cpu time      0.0029: real time      0.0029
    TRIAL :  cpu time      5.1895: real time      5.2206
    CORREC:  cpu time      0.0002: real time      0.0002
    CHARGE:  cpu time      0.1108: real time      0.1116
    --------------------------------------------
      LOOP:  cpu time      6.1628: real time      6.1977

 eigenvalue-minimisations  :     0
 total energy-change (2. order) :-0.3662064E-05  (-0.6164453E-05)
 number of electron      51.9999997 magnetization 
 augmentation part        1.2839117 magnetization 

 DIPCOR: dipole corrections for dipol
 direction  1 min pos     1, direction  2 min pos     1, direction  3 min pos     1,
 dipolmoment          -0.108348      0.738713     -0.364170 electrons x Angstroem
 Tr[quadrupol]        32.294889

 energy correction for charged system         0.000000 eV
 dipol+quadrupol energy correction           -0.002601 eV
 added-field ion interaction         -0.108023 eV  (added to PSCEN)


 Free energy of the ion-electron system (eV)
  ---------------------------------------------------
  alpha Z        PSCENC =         1.33487948
  Ewald energy   TEWEN  =      3957.29976010
  -Hartree energ DENC   =     -5264.10310150
  -exchange      EXHF   =       108.21424373
  -V(xc)+E(xc)   XCENC  =       137.64527639
  PAW double counting   =      3913.53781373    -3922.36305026
  entropy T*S    EENTRO =        -0.00000000
  eigenvalues    EBANDS =      -699.36914218
  atomic energy  EATOM  =      1612.77738675
  ---------------------------------------------------
  free energy    TOTEN  =      -155.02593376 eV

  energy without entropy =     -155.02593376  energy(sigma->0) =     -155.02593376
  exchange ACFDT corr.  =        -0.00000000  see jH, gK, PRB 81, 115126


--------------------------------------------------------------------------------------------------------




--------------------------------------- Iteration      1(  38)  ---------------------------------------


    POTLOK:  cpu time      0.8594: real time      0.8628
    SETDIJ:  cpu time      0.0026: real time      0.0026
    TRIAL :  cpu time      5.1825: real time      5.2135
    CORREC:  cpu time      0.0002: real time      0.0002
    CHARGE:  cpu time      0.1109: real time      0.1118
    --------------------------------------------
      LOOP:  cpu time      6.1559: real time      6.1913

 eigenvalue-minimisations  :     0
 total energy-change (2. order) :-0.7482144E-05  (-0.5346342E-05)
 number of electron      51.9999997 magnetization 
 augmentation part        1.2839108 magnetization 

 DIPCOR: dipole corrections for dipol
 direction  1 min pos     1, direction  2 min pos     1, direction  3 min pos     1,
 dipolmoment          -0.108335      0.738733     -0.364151 electrons x Angstroem
 Tr[quadrupol]        32.294633

 energy correction for charged system         0.000000 eV
 dipol+quadrupol energy correction           -0.002601 eV
 added-field ion interaction         -0.108022 eV  (added to PSCEN)


 Free energy of the ion-electron system (eV)
  ---------------------------------------------------
  alpha Z        PSCENC =         1.33488014
  Ewald energy   TEWEN  =      3957.29976010
  -Hartree energ DENC   =     -5264.10603181
  -exchange      EXHF   =       108.21432300
  -V(xc)+E(xc)   XCENC  =       137.64562212
  PAW double counting   =      3913.53834121    -3922.36358081
  entropy T*S    EENTRO =        -0.00000000
  eigenvalues    EBANDS =      -699.36664196
  atomic energy  EATOM  =      1612.77738675
  ---------------------------------------------------
  free energy    TOTEN  =      -155.02594124 eV

  energy without entropy =     -155.02594124  energy(sigma->0) =     -155.02594124
  exchange ACFDT corr.  =        -0.00000000  see jH, gK, PRB 81, 115126


--------------------------------------------------------------------------------------------------------




--------------------------------------- Iteration      1(  39)  ---------------------------------------


    POTLOK:  cpu time      0.8585: real time      0.8624
    SETDIJ:  cpu time      0.0029: real time      0.0030
    TRIAL :  cpu time      5.1992: real time      5.2291
    CORREC:  cpu time      0.0002: real time      0.0002
    CHARGE:  cpu time      0.1107: real time      0.1116
    --------------------------------------------
      LOOP:  cpu time      6.1717: real time      6.2064

 eigenvalue-minimisations  :     0
 total energy-change (2. order) :-0.1409222E-05  (-0.4778314E-05)
 number of electron      51.9999997 magnetization 
 augmentation part        1.2839120 magnetization 

 DIPCOR: dipole corrections for dipol
 direction  1 min pos     1, direction  2 min pos     1, direction  3 min pos     1,
 dipolmoment          -0.108311      0.738727     -0.364156 electrons x Angstroem
 Tr[quadrupol]        32.295086

 energy correction for charged system         0.000000 eV
 dipol+quadrupol energy correction           -0.002601 eV
 added-field ion interaction         -0.108018 eV  (added to PSCEN)


 Free energy of the ion-electron system (eV)
  ---------------------------------------------------
  alpha Z        PSCENC =         1.33488351
  Ewald energy   TEWEN  =      3957.29976010
  -Hartree energ DENC   =     -5264.10172790
  -exchange      EXHF   =       108.21425705
  -V(xc)+E(xc)   XCENC  =       137.64525809
  PAW double counting   =      3913.53382485    -3922.35906166
  entropy T*S    EENTRO =        -0.00000000
  eigenvalues    EBANDS =      -699.37052345
  atomic energy  EATOM  =      1612.77738675
  ---------------------------------------------------
  free energy    TOTEN  =      -155.02594265 eV

  energy without entropy =     -155.02594265  energy(sigma->0) =     -155.02594265
  exchange ACFDT corr.  =        -0.00000000  see jH, gK, PRB 81, 115126


--------------------------------------------------------------------------------------------------------




--------------------------------------- Iteration      1(  40)  ---------------------------------------


    POTLOK:  cpu time      0.8603: real time      0.8634
    SETDIJ:  cpu time      0.0026: real time      0.0026
    TRIAL :  cpu time      5.1637: real time      5.1950
    CORREC:  cpu time      0.0002: real time      0.0002
    CHARGE:  cpu time      0.1109: real time      0.1118
    --------------------------------------------
      LOOP:  cpu time      6.1378: real time      6.1731

 eigenvalue-minimisations  :     0
 total energy-change (2. order) :-0.5911593E-05  (-0.4101008E-05)
 number of electron      51.9999997 magnetization 
 augmentation part        1.2839110 magnetization 

 DIPCOR: dipole corrections for dipol
 direction  1 min pos     1, direction  2 min pos     1, direction  3 min pos     1,
 dipolmoment          -0.108297      0.738742     -0.364130 electrons x Angstroem
 Tr[quadrupol]        32.294727

 energy correction for charged system         0.000000 eV
 dipol+quadrupol energy correction           -0.002602 eV
 added-field ion interaction         -0.108017 eV  (added to PSCEN)


 Free energy of the ion-electron system (eV)
  ---------------------------------------------------
  alpha Z        PSCENC =         1.33488480
  Ewald energy   TEWEN  =      3957.29976010
  -Hartree energ DENC   =     -5264.10567030
  -exchange      EXHF   =       108.21435282
  -V(xc)+E(xc)   XCENC  =       137.64564341
  PAW double counting   =      3913.53583332    -3922.36107467
  entropy T*S    EENTRO =        -0.00000000
  eigenvalues    EBANDS =      -699.36706480
  atomic energy  EATOM  =      1612.77738675
  ---------------------------------------------------
  free energy    TOTEN  =      -155.02594857 eV

  energy without entropy =     -155.02594857  energy(sigma->0) =     -155.02594857
  exchange ACFDT corr.  =        -0.00000000  see jH, gK, PRB 81, 115126


--------------------------------------------------------------------------------------------------------




--------------------------------------- Iteration      1(  41)  ---------------------------------------


    POTLOK:  cpu time      0.8600: real time      0.8633
    SETDIJ:  cpu time      0.0025: real time      0.0025
    TRIAL :  cpu time      5.1805: real time      5.2118
    CORREC:  cpu time      0.0001: real time      0.0002
    CHARGE:  cpu time      0.1136: real time      0.1150
    --------------------------------------------
      LOOP:  cpu time      6.1569: real time      6.1930

 eigenvalue-minimisations  :     0
 total energy-change (2. order) :-0.9071236E-06  (-0.3784636E-05)
 number of electron      51.9999997 magnetization 
 augmentation part        1.2839122 magnetization 

 DIPCOR: dipole corrections for dipol
 direction  1 min pos     1, direction  2 min pos     1, direction  3 min pos     1,
 dipolmoment          -0.108288      0.738730     -0.364157 electrons x Angstroem
 Tr[quadrupol]        32.295129

 energy correction for charged system         0.000000 eV
 dipol+quadrupol energy correction           -0.002601 eV
 added-field ion interaction         -0.108016 eV  (added to PSCEN)


 Free energy of the ion-electron system (eV)
  ---------------------------------------------------
  alpha Z        PSCENC =         1.33488609
  Ewald energy   TEWEN  =      3957.29976010
  -Hartree energ DENC   =     -5264.10158960
  -exchange      EXHF   =       108.21428421
  -V(xc)+E(xc)   XCENC  =       137.64529543
  PAW double counting   =      3913.53155141    -3922.35678929
  entropy T*S    EENTRO =        -0.00000000
  eigenvalues    EBANDS =      -699.37073458
  atomic energy  EATOM  =      1612.77738675
  ---------------------------------------------------
  free energy    TOTEN  =      -155.02594947 eV

  energy without entropy =     -155.02594947  energy(sigma->0) =     -155.02594947
  exchange ACFDT corr.  =        -0.00000000  see jH, gK, PRB 81, 115126


--------------------------------------------------------------------------------------------------------




--------------------------------------- Iteration      1(  42)  ---------------------------------------


    POTLOK:  cpu time      0.8863: real time      0.8942
    SETDIJ:  cpu time      0.0022: real time      0.0022
    TRIAL :  cpu time      5.1935: real time      5.2357
    CORREC:  cpu time      0.0001: real time      0.0001
    CHARGE:  cpu time      0.1110: real time      0.1118
    --------------------------------------------
      LOOP:  cpu time      6.1943: real time      6.2451

 eigenvalue-minimisations  :     0
 total energy-change (2. order) :-0.3147697E-05  (-0.3384981E-05)
 number of electron      51.9999997 magnetization 
 augmentation part        1.2839113 magnetization 

 DIPCOR: dipole corrections for dipol
 direction  1 min pos     1, direction  2 min pos     1, direction  3 min pos     1,
 dipolmoment          -0.108268      0.738746     -0.364117 electrons x Angstroem
 Tr[quadrupol]        32.294860

 energy correction for charged system         0.000000 eV
 dipol+quadrupol energy correction           -0.002601 eV
 added-field ion interaction         -0.108013 eV  (added to PSCEN)


 Free energy of the ion-electron system (eV)
  ---------------------------------------------------
  alpha Z        PSCENC =         1.33488927
  Ewald energy   TEWEN  =      3957.29976010
  -Hartree energ DENC   =     -5264.10481557
  -exchange      EXHF   =       108.21436782
  -V(xc)+E(xc)   XCENC  =       137.64560800
  PAW double counting   =      3913.53415299    -3922.35939531
  entropy T*S    EENTRO =        -0.00000000
  eigenvalues    EBANDS =      -699.36790669
  atomic energy  EATOM  =      1612.77738675
  ---------------------------------------------------
  free energy    TOTEN  =      -155.02595262 eV

  energy without entropy =     -155.02595262  energy(sigma->0) =     -155.02595262
  exchange ACFDT corr.  =        -0.00000000  see jH, gK, PRB 81, 115126


--------------------------------------------------------------------------------------------------------




--------------------------------------- Iteration      1(  43)  ---------------------------------------


    POTLOK:  cpu time      0.8588: real time      0.8624
    SETDIJ:  cpu time      0.0028: real time      0.0028
    TRIAL :  cpu time      5.1806: real time      5.2115
    CORREC:  cpu time      0.0002: real time      0.0002
    CHARGE:  cpu time      0.1108: real time      0.1117
    --------------------------------------------
      LOOP:  cpu time      6.1571: real time      6.1944

 eigenvalue-minimisations  :     0
 total energy-change (2. order) :-0.2789734E-05  (-0.3170119E-05)
 number of electron      51.9999997 magnetization 
 augmentation part        1.2839119 magnetization 

 DIPCOR: dipole corrections for dipol
 direction  1 min pos     1, direction  2 min pos     1, direction  3 min pos     1,
 dipolmoment          -0.108269      0.738739     -0.364159 electrons x Angstroem
 Tr[quadrupol]        32.295154

 energy correction for charged system         0.000000 eV
 dipol+quadrupol energy correction           -0.002601 eV
 added-field ion interaction         -0.108014 eV  (added to PSCEN)


 Free energy of the ion-electron system (eV)
  ---------------------------------------------------
  alpha Z        PSCENC =         1.33488764
  Ewald energy   TEWEN  =      3957.29976010
  -Hartree energ DENC   =     -5264.10180441
  -exchange      EXHF   =       108.21431510
  -V(xc)+E(xc)   XCENC  =       137.64540305
  PAW double counting   =      3913.53096234    -3922.35620137
  entropy T*S    EENTRO =        -0.00000000
  eigenvalues    EBANDS =      -699.37066461
  atomic energy  EATOM  =      1612.77738675
  ---------------------------------------------------
  free energy    TOTEN  =      -155.02595541 eV

  energy without entropy =     -155.02595541  energy(sigma->0) =     -155.02595541
  exchange ACFDT corr.  =        -0.00000000  see jH, gK, PRB 81, 115126


--------------------------------------------------------------------------------------------------------




--------------------------------------- Iteration      1(  44)  ---------------------------------------


    POTLOK:  cpu time      0.8587: real time      0.8620
    SETDIJ:  cpu time      0.0028: real time      0.0028
    TRIAL :  cpu time      5.1821: real time      5.2127
    CORREC:  cpu time      0.0003: real time      0.0003
    CHARGE:  cpu time      0.1111: real time      0.1121
    --------------------------------------------
      LOOP:  cpu time      6.1554: real time      6.1924

 eigenvalue-minimisations  :     0
 total energy-change (2. order) :-0.1111247E-05  (-0.2906299E-05)
 number of electron      51.9999997 magnetization 
 augmentation part        1.2839121 magnetization 

 DIPCOR: dipole corrections for dipol
 direction  1 min pos     1, direction  2 min pos     1, direction  3 min pos     1,
 dipolmoment          -0.108249      0.738754     -0.364119 electrons x Angstroem
 Tr[quadrupol]        32.295058

 energy correction for charged system         0.000000 eV
 dipol+quadrupol energy correction           -0.002602 eV
 added-field ion interaction         -0.108012 eV  (added to PSCEN)


 Free energy of the ion-electron system (eV)
  ---------------------------------------------------
  alpha Z        PSCENC =         1.33489035
  Ewald energy   TEWEN  =      3957.29976010
  -Hartree energ DENC   =     -5264.10318583
  -exchange      EXHF   =       108.21435611
  -V(xc)+E(xc)   XCENC  =       137.64550445
  PAW double counting   =      3913.53228274    -3922.35752399
  entropy T*S    EENTRO =        -0.00000000
  eigenvalues    EBANDS =      -699.36942721
  atomic energy  EATOM  =      1612.77738675
  ---------------------------------------------------
  free energy    TOTEN  =      -155.02595652 eV

  energy without entropy =     -155.02595652  energy(sigma->0) =     -155.02595652
  exchange ACFDT corr.  =        -0.00000000  see jH, gK, PRB 81, 115126


--------------------------------------------------------------------------------------------------------




--------------------------------------- Iteration      1(  45)  ---------------------------------------


    POTLOK:  cpu time      0.8592: real time      0.8624
    SETDIJ:  cpu time      0.0029: real time      0.0029
    TRIAL :  cpu time      5.1798: real time      5.2116
    CORREC:  cpu time      0.0002: real time      0.0002
    CHARGE:  cpu time      0.1106: real time      0.1115
    --------------------------------------------
      LOOP:  cpu time      6.1529: real time      6.1889

 eigenvalue-minimisations  :     0
 total energy-change (2. order) :-0.1866923E-05  (-0.2518391E-05)
 number of electron      51.9999997 magnetization 
 augmentation part        1.2839117 magnetization 

 DIPCOR: dipole corrections for dipol
 direction  1 min pos     1, direction  2 min pos     1, direction  3 min pos     1,
 dipolmoment          -0.108238      0.738740     -0.364144 electrons x Angstroem
 Tr[quadrupol]        32.295078

 energy correction for charged system         0.000000 eV
 dipol+quadrupol energy correction           -0.002601 eV
 added-field ion interaction         -0.108009 eV  (added to PSCEN)


 Free energy of the ion-electron system (eV)
  ---------------------------------------------------
  alpha Z        PSCENC =         1.33489253
  Ewald energy   TEWEN  =      3957.29976010
  -Hartree energ DENC   =     -5264.10294383
  -exchange      EXHF   =       108.21436394
  -V(xc)+E(xc)   XCENC  =       137.64551650
  PAW double counting   =      3913.53245211    -3922.35769358
  entropy T*S    EENTRO =        -0.00000000
  eigenvalues    EBANDS =      -699.36969291
  atomic energy  EATOM  =      1612.77738675
  ---------------------------------------------------
  free energy    TOTEN  =      -155.02595839 eV

  energy without entropy =     -155.02595839  energy(sigma->0) =     -155.02595839
  exchange ACFDT corr.  =        -0.00000000  see jH, gK, PRB 81, 115126


--------------------------------------------------------------------------------------------------------




--------------------------------------- Iteration      1(  46)  ---------------------------------------


    POTLOK:  cpu time      0.8578: real time      0.8610
    SETDIJ:  cpu time      0.0034: real time      0.0034
    TRIAL :  cpu time      5.1828: real time      5.2136
    CORREC:  cpu time      0.0002: real time      0.0002
    CHARGE:  cpu time      0.1107: real time      0.1121
    --------------------------------------------
      LOOP:  cpu time      6.1552: real time      6.1907

 eigenvalue-minimisations  :     0
 total energy-change (2. order) :-0.2548546E-05  (-0.2184661E-05)
 number of electron      51.9999997 magnetization 
 augmentation part        1.2839120 magnetization 

 DIPCOR: dipole corrections for dipol
 direction  1 min pos     1, direction  2 min pos     1, direction  3 min pos     1,
 dipolmoment          -0.108235      0.738758     -0.364127 electrons x Angstroem
 Tr[quadrupol]        32.295172

 energy correction for charged system         0.000000 eV
 dipol+quadrupol energy correction           -0.002602 eV
 added-field ion interaction         -0.108010 eV  (added to PSCEN)


 Free energy of the ion-electron system (eV)
  ---------------------------------------------------
  alpha Z        PSCENC =         1.33489158
  Ewald energy   TEWEN  =      3957.29976010
  -Hartree energ DENC   =     -5264.10222636
  -exchange      EXHF   =       108.21435008
  -V(xc)+E(xc)   XCENC  =       137.64548554
  PAW double counting   =      3913.53151471    -3922.35675507
  entropy T*S    EENTRO =        -0.00000000
  eigenvalues    EBANDS =      -699.37036828
  atomic energy  EATOM  =      1612.77738675
  ---------------------------------------------------
  free energy    TOTEN  =      -155.02596094 eV

  energy without entropy =     -155.02596094  energy(sigma->0) =     -155.02596094
  exchange ACFDT corr.  =        -0.00000000  see jH, gK, PRB 81, 115126


--------------------------------------------------------------------------------------------------------




--------------------------------------- Iteration      1(  47)  ---------------------------------------


    POTLOK:  cpu time      0.8592: real time      0.8631
    SETDIJ:  cpu time      0.0030: real time      0.0030
    TRIAL :  cpu time      5.1857: real time      5.2162
    CORREC:  cpu time      0.0002: real time      0.0002
    CHARGE:  cpu time      0.1109: real time      0.1117
    --------------------------------------------
      LOOP:  cpu time      6.1592: real time      6.1944

 eigenvalue-minimisations  :     0
 total energy-change (2. order) : 0.1089782E-05  (-0.2045483E-05)
 number of electron      51.9999997 magnetization 
 augmentation part        1.2839120 magnetization 

 DIPCOR: dipole corrections for dipol
 direction  1 min pos     1, direction  2 min pos     1, direction  3 min pos     1,
 dipolmoment          -0.108225      0.738736     -0.364131 electrons x Angstroem
 Tr[quadrupol]        32.295190

 energy correction for charged system         0.000000 eV
 dipol+quadrupol energy correction           -0.002601 eV
 added-field ion interaction         -0.108007 eV  (added to PSCEN)


 Free energy of the ion-electron system (eV)
  ---------------------------------------------------
  alpha Z        PSCENC =         1.33489524
  Ewald energy   TEWEN  =      3957.29976010
  -Hartree energ DENC   =     -5264.10225229
  -exchange      EXHF   =       108.21436791
  -V(xc)+E(xc)   XCENC  =       137.64548751
  PAW double counting   =      3913.53247039    -3922.35771163
  entropy T*S    EENTRO =        -0.00000000
  eigenvalues    EBANDS =      -699.37036383
  atomic energy  EATOM  =      1612.77738675
  ---------------------------------------------------
  free energy    TOTEN  =      -155.02595985 eV

  energy without entropy =     -155.02595985  energy(sigma->0) =     -155.02595985
  exchange ACFDT corr.  =        -0.00000000  see jH, gK, PRB 81, 115126


--------------------------------------------------------------------------------------------------------




--------------------------------------- Iteration      1(  48)  ---------------------------------------


    POTLOK:  cpu time      0.8610: real time      0.8644
    SETDIJ:  cpu time      0.0023: real time      0.0023
    TRIAL :  cpu time      5.1711: real time      5.2025
    CORREC:  cpu time      0.0001: real time      0.0001
    CHARGE:  cpu time      0.1108: real time      0.1116
    --------------------------------------------
      LOOP:  cpu time      6.1454: real time      6.1811

 eigenvalue-minimisations  :     0
 total energy-change (2. order) :-0.2593928E-05  (-0.1990674E-05)
 number of electron      51.9999997 magnetization 
 augmentation part        1.2839118 magnetization 

 DIPCOR: dipole corrections for dipol
 direction  1 min pos     1, direction  2 min pos     1, direction  3 min pos     1,
 dipolmoment          -0.108212      0.738769     -0.364121 electrons x Angstroem
 Tr[quadrupol]        32.295109

 energy correction for charged system         0.000000 eV
 dipol+quadrupol energy correction           -0.002602 eV
 added-field ion interaction         -0.108007 eV  (added to PSCEN)


 Free energy of the ion-electron system (eV)
  ---------------------------------------------------
  alpha Z        PSCENC =         1.33489459
  Ewald energy   TEWEN  =      3957.29976010
  -Hartree energ DENC   =     -5264.10287367
  -exchange      EXHF   =       108.21437683
  -V(xc)+E(xc)   XCENC  =       137.64555298
  PAW double counting   =      3913.53245292    -3922.35769419
  entropy T*S    EENTRO =        -0.00000000
  eigenvalues    EBANDS =      -699.36981877
  atomic energy  EATOM  =      1612.77738675
  ---------------------------------------------------
  free energy    TOTEN  =      -155.02596244 eV

  energy without entropy =     -155.02596244  energy(sigma->0) =     -155.02596244
  exchange ACFDT corr.  =        -0.00000000  see jH, gK, PRB 81, 115126


--------------------------------------------------------------------------------------------------------




--------------------------------------- Iteration      1(  49)  ---------------------------------------


    POTLOK:  cpu time      0.8591: real time      0.8623
    SETDIJ:  cpu time      0.0028: real time      0.0028
    TRIAL :  cpu time      5.1797: real time      5.2112
    CORREC:  cpu time      0.0002: real time      0.0002
    CHARGE:  cpu time      0.1109: real time      0.1119
    --------------------------------------------
      LOOP:  cpu time      6.1531: real time      6.1887

 eigenvalue-minimisations  :     0
 total energy-change (2. order) :-0.5714819E-06  (-0.1911406E-05)
 number of electron      51.9999997 magnetization 
 augmentation part        1.2839118 magnetization 

 DIPCOR: dipole corrections for dipol
 direction  1 min pos     1, direction  2 min pos     1, direction  3 min pos     1,
 dipolmoment          -0.108213      0.738733     -0.364127 electrons x Angstroem
 Tr[quadrupol]        32.295274

 energy correction for charged system         0.000000 eV
 dipol+quadrupol energy correction           -0.002601 eV
 added-field ion interaction         -0.108005 eV  (added to PSCEN)


 Free energy of the ion-electron system (eV)
  ---------------------------------------------------
  alpha Z        PSCENC =         1.33489751
  Ewald energy   TEWEN  =      3957.29976010
  -Hartree energ DENC   =     -5264.10145211
  -exchange      EXHF   =       108.21436371
  -V(xc)+E(xc)   XCENC  =       137.64545570
  PAW double counting   =      3913.53213127    -3922.35737181
  entropy T*S    EENTRO =        -0.00000000
  eigenvalues    EBANDS =      -699.37113413
  atomic energy  EATOM  =      1612.77738675
  ---------------------------------------------------
  free energy    TOTEN  =      -155.02596301 eV

  energy without entropy =     -155.02596301  energy(sigma->0) =     -155.02596301
  exchange ACFDT corr.  =        -0.00000000  see jH, gK, PRB 81, 115126


--------------------------------------------------------------------------------------------------------




--------------------------------------- Iteration      1(  50)  ---------------------------------------


    POTLOK:  cpu time      0.8600: real time      0.8637
    SETDIJ:  cpu time      0.0032: real time      0.0032
    TRIAL :  cpu time      5.1833: real time      5.2146
    CORREC:  cpu time      0.0002: real time      0.0002
    CHARGE:  cpu time      0.1108: real time      0.1116
    --------------------------------------------
      LOOP:  cpu time      6.1578: real time      6.1937

 eigenvalue-minimisations  :     0
 total energy-change (2. order) :-0.2080407E-05  (-0.1612730E-05)
 number of electron      51.9999997 magnetization 
 augmentation part        1.2839119 magnetization 

 DIPCOR: dipole corrections for dipol
 direction  1 min pos     1, direction  2 min pos     1, direction  3 min pos     1,
 dipolmoment          -0.108204      0.738766     -0.364121 electrons x Angstroem
 Tr[quadrupol]        32.295189

 energy correction for charged system         0.000000 eV
 dipol+quadrupol energy correction           -0.002601 eV
 added-field ion interaction         -0.108006 eV  (added to PSCEN)


 Free energy of the ion-electron system (eV)
  ---------------------------------------------------
  alpha Z        PSCENC =         1.33489623
  Ewald energy   TEWEN  =      3957.29976010
  -Hartree energ DENC   =     -5264.10254228
  -exchange      EXHF   =       108.21438338
  -V(xc)+E(xc)   XCENC  =       137.64558044
  PAW double counting   =      3913.53240779    -3922.35764855
  entropy T*S    EENTRO =        -0.00000000
  eigenvalues    EBANDS =      -699.37018896
  atomic energy  EATOM  =      1612.77738675
  ---------------------------------------------------
  free energy    TOTEN  =      -155.02596509 eV

  energy without entropy =     -155.02596509  energy(sigma->0) =     -155.02596509
  exchange ACFDT corr.  =        -0.00000000  see jH, gK, PRB 81, 115126


--------------------------------------------------------------------------------------------------------




--------------------------------------- Iteration      1(  51)  ---------------------------------------


    POTLOK:  cpu time      0.8654: real time      0.8697
    SETDIJ:  cpu time      0.0029: real time      0.0029
    TRIAL :  cpu time      5.1876: real time      5.2185
    CORREC:  cpu time      0.0001: real time      0.0001
    CHARGE:  cpu time      0.1109: real time      0.1117
    --------------------------------------------
      LOOP:  cpu time      6.1672: real time      6.2032

 eigenvalue-minimisations  :     0
 total energy-change (2. order) : 0.8544112E-06  (-0.1351780E-05)
 number of electron      51.9999997 magnetization 
 augmentation part        1.2839120 magnetization 

 DIPCOR: dipole corrections for dipol
 direction  1 min pos     1, direction  2 min pos     1, direction  3 min pos     1,
 dipolmoment          -0.108196      0.738749     -0.364121 electrons x Angstroem
 Tr[quadrupol]        32.295287

 energy correction for charged system         0.000000 eV
 dipol+quadrupol energy correction           -0.002601 eV
 added-field ion interaction         -0.108003 eV  (added to PSCEN)


 Free energy of the ion-electron system (eV)
  ---------------------------------------------------
  alpha Z        PSCENC =         1.33489908
  Ewald energy   TEWEN  =      3957.29976010
  -Hartree energ DENC   =     -5264.10143022
  -exchange      EXHF   =       108.21437269
  -V(xc)+E(xc)   XCENC  =       137.64544324
  PAW double counting   =      3913.53234142    -3922.35758240
  entropy T*S    EENTRO =        -0.00000000
  eigenvalues    EBANDS =      -699.37115490
  atomic energy  EATOM  =      1612.77738675
  ---------------------------------------------------
  free energy    TOTEN  =      -155.02596424 eV

  energy without entropy =     -155.02596424  energy(sigma->0) =     -155.02596424
  exchange ACFDT corr.  =        -0.00000000  see jH, gK, PRB 81, 115126


--------------------------------------------------------------------------------------------------------




--------------------------------------- Iteration      1(  52)  ---------------------------------------


    POTLOK:  cpu time      0.8577: real time      0.8612
    SETDIJ:  cpu time      0.0033: real time      0.0033
    TRIAL :  cpu time      5.1829: real time      5.2133
    CORREC:  cpu time      0.0002: real time      0.0002
    CHARGE:  cpu time      0.1108: real time      0.1117
    --------------------------------------------
      LOOP:  cpu time      6.1551: real time      6.1899

 eigenvalue-minimisations  :     0
 total energy-change (2. order) :-0.1476442E-05  (-0.1271556E-05)
 number of electron      51.9999997 magnetization 
 augmentation part        1.2839116 magnetization 

 DIPCOR: dipole corrections for dipol
 direction  1 min pos     1, direction  2 min pos     1, direction  3 min pos     1,
 dipolmoment          -0.108191      0.738759     -0.364121 electrons x Angstroem
 Tr[quadrupol]        32.295194

 energy correction for charged system         0.000000 eV
 dipol+quadrupol energy correction           -0.002601 eV
 added-field ion interaction         -0.108003 eV  (added to PSCEN)


 Free energy of the ion-electron system (eV)
  ---------------------------------------------------
  alpha Z        PSCENC =         1.33489897
  Ewald energy   TEWEN  =      3957.29976010
  -Hartree energ DENC   =     -5264.10262601
  -exchange      EXHF   =       108.21439809
  -V(xc)+E(xc)   XCENC  =       137.64560782
  PAW double counting   =      3913.53292903    -3922.35817036
  entropy T*S    EENTRO =        -0.00000000
  eigenvalues    EBANDS =      -699.37015010
  atomic energy  EATOM  =      1612.77738675
  ---------------------------------------------------
  free energy    TOTEN  =      -155.02596571 eV

  energy without entropy =     -155.02596571  energy(sigma->0) =     -155.02596571
  exchange ACFDT corr.  =        -0.00000000  see jH, gK, PRB 81, 115126


--------------------------------------------------------------------------------------------------------




--------------------------------------- Iteration      1(  53)  ---------------------------------------


    POTLOK:  cpu time      0.8603: real time      0.8638
    SETDIJ:  cpu time      0.0027: real time      0.0027
    TRIAL :  cpu time      5.1733: real time      5.2049
    CORREC:  cpu time      0.0002: real time      0.0002
    CHARGE:  cpu time      0.1109: real time      0.1118
    --------------------------------------------
      LOOP:  cpu time      6.1580: real time      6.1957

 eigenvalue-minimisations  :     0
 total energy-change (2. order) :-0.6151595E-06  (-0.1378837E-05)
 number of electron      51.9999997 magnetization 
 augmentation part        1.2839119 magnetization 

 DIPCOR: dipole corrections for dipol
 direction  1 min pos     1, direction  2 min pos     1, direction  3 min pos     1,
 dipolmoment          -0.108189      0.738758     -0.364118 electrons x Angstroem
 Tr[quadrupol]        32.295345

 energy correction for charged system         0.000000 eV
 dipol+quadrupol energy correction           -0.002601 eV
 added-field ion interaction         -0.108003 eV  (added to PSCEN)


 Free energy of the ion-electron system (eV)
  ---------------------------------------------------
  alpha Z        PSCENC =         1.33489847
  Ewald energy   TEWEN  =      3957.29976010
  -Hartree energ DENC   =     -5264.10086846
  -exchange      EXHF   =       108.21436806
  -V(xc)+E(xc)   XCENC  =       137.64545368
  PAW double counting   =      3913.53169835    -3922.35693827
  entropy T*S    EENTRO =        -0.00000000
  eigenvalues    EBANDS =      -699.37172502
  atomic energy  EATOM  =      1612.77738675
  ---------------------------------------------------
  free energy    TOTEN  =      -155.02596633 eV

  energy without entropy =     -155.02596633  energy(sigma->0) =     -155.02596633
  exchange ACFDT corr.  =        -0.00000000  see jH, gK, PRB 81, 115126


--------------------------------------------------------------------------------------------------------




--------------------------------------- Iteration      1(  54)  ---------------------------------------


    POTLOK:  cpu time      0.8591: real time      0.8624
    SETDIJ:  cpu time      0.0030: real time      0.0030
    TRIAL :  cpu time      5.1834: real time      5.2131
    CORREC:  cpu time      0.0002: real time      0.0002
    CHARGE:  cpu time      0.1107: real time      0.1116
    --------------------------------------------
      LOOP:  cpu time      6.1568: real time      6.1912

 eigenvalue-minimisations  :     0
 total energy-change (2. order) :-0.4455251E-07  (-0.1426688E-05)
 number of electron      51.9999997 magnetization 
 augmentation part        1.2839118 magnetization 

 DIPCOR: dipole corrections for dipol
 direction  1 min pos     1, direction  2 min pos     1, direction  3 min pos     1,
 dipolmoment          -0.108172      0.738765     -0.364121 electrons x Angstroem
 Tr[quadrupol]        32.295261

 energy correction for charged system         0.000000 eV
 dipol+quadrupol energy correction           -0.002601 eV
 added-field ion interaction         -0.108002 eV  (added to PSCEN)


 Free energy of the ion-electron system (eV)
  ---------------------------------------------------
  alpha Z        PSCENC =         1.33490005
  Ewald energy   TEWEN  =      3957.29976010
  -Hartree energ DENC   =     -5264.10210868
  -exchange      EXHF   =       108.21439757
  -V(xc)+E(xc)   XCENC  =       137.64554491
  PAW double counting   =      3913.53302028    -3922.35826153
  entropy T*S    EENTRO =        -0.00000000
  eigenvalues    EBANDS =      -699.37060584
  atomic energy  EATOM  =      1612.77738675
  ---------------------------------------------------
  free energy    TOTEN  =      -155.02596637 eV

  energy without entropy =     -155.02596637  energy(sigma->0) =     -155.02596637
  exchange ACFDT corr.  =        -0.00000000  see jH, gK, PRB 81, 115126


--------------------------------------------------------------------------------------------------------




--------------------------------------- Iteration      1(  55)  ---------------------------------------


    POTLOK:  cpu time      0.8660: real time      0.8693
    SETDIJ:  cpu time      0.0031: real time      0.0031
    TRIAL :  cpu time      5.1721: real time      5.2034
    CORREC:  cpu time      0.0003: real time      0.0004
    CHARGE:  cpu time      0.1110: real time      0.1116
    --------------------------------------------
      LOOP:  cpu time      6.1528: real time      6.1883

 eigenvalue-minimisations  :     0
 total energy-change (2. order) :-0.6915134E-06  (-0.1477037E-05)
 number of electron      51.9999997 magnetization 
 augmentation part        1.2839119 magnetization 

 DIPCOR: dipole corrections for dipol
 direction  1 min pos     1, direction  2 min pos     1, direction  3 min pos     1,
 dipolmoment          -0.108189      0.738757     -0.364112 electrons x Angstroem
 Tr[quadrupol]        32.295288

 energy correction for charged system         0.000000 eV
 dipol+quadrupol energy correction           -0.002601 eV
 added-field ion interaction         -0.108002 eV  (added to PSCEN)


 Free energy of the ion-electron system (eV)
  ---------------------------------------------------
  alpha Z        PSCENC =         1.33490007
  Ewald energy   TEWEN  =      3957.29976010
  -Hartree energ DENC   =     -5264.10182639
  -exchange      EXHF   =       108.21439496
  -V(xc)+E(xc)   XCENC  =       137.64550103
  PAW double counting   =      3913.53242393    -3922.35766458
  entropy T*S    EENTRO =        -0.00000000
  eigenvalues    EBANDS =      -699.37084294
  atomic energy  EATOM  =      1612.77738675
  ---------------------------------------------------
  free energy    TOTEN  =      -155.02596707 eV

  energy without entropy =     -155.02596707  energy(sigma->0) =     -155.02596707
  exchange ACFDT corr.  =        -0.00000000  see jH, gK, PRB 81, 115126


--------------------------------------------------------------------------------------------------------




--------------------------------------- Iteration      1(  56)  ---------------------------------------


    POTLOK:  cpu time      0.8596: real time      0.8628
    SETDIJ:  cpu time      0.0032: real time      0.0032
    TRIAL :  cpu time      5.1652: real time      5.1968
    CORREC:  cpu time      0.0002: real time      0.0002
    CHARGE:  cpu time      0.1109: real time      0.1118
    --------------------------------------------
      LOOP:  cpu time      6.1393: real time      6.1750

 eigenvalue-minimisations  :     0
 total energy-change (2. order) :-0.7819772E-06  (-0.1403183E-05)
 number of electron      51.9999997 magnetization 
 augmentation part        1.2839116 magnetization 

 DIPCOR: dipole corrections for dipol
 direction  1 min pos     1, direction  2 min pos     1, direction  3 min pos     1,
 dipolmoment          -0.108162      0.738768     -0.364118 electrons x Angstroem
 Tr[quadrupol]        32.295282

 energy correction for charged system         0.000000 eV
 dipol+quadrupol energy correction           -0.002602 eV
 added-field ion interaction         -0.108001 eV  (added to PSCEN)


 Free energy of the ion-electron system (eV)
  ---------------------------------------------------
  alpha Z        PSCENC =         1.33490040
  Ewald energy   TEWEN  =      3957.29976010
  -Hartree energ DENC   =     -5264.10176443
  -exchange      EXHF   =       108.21440085
  -V(xc)+E(xc)   XCENC  =       137.64559069
  PAW double counting   =      3913.53302091    -3922.35826186
  entropy T*S    EENTRO =        -0.00000000
  eigenvalues    EBANDS =      -699.37100126
  atomic energy  EATOM  =      1612.77738675
  ---------------------------------------------------
  free energy    TOTEN  =      -155.02596785 eV

  energy without entropy =     -155.02596785  energy(sigma->0) =     -155.02596785
  exchange ACFDT corr.  =        -0.00000000  see jH, gK, PRB 81, 115126


--------------------------------------------------------------------------------------------------------




--------------------------------------- Iteration      1(  57)  ---------------------------------------


    POTLOK:  cpu time      0.8597: real time      0.8631
    SETDIJ:  cpu time      0.0027: real time      0.0027
    TRIAL :  cpu time      5.1902: real time      5.2200
    CORREC:  cpu time      0.0002: real time      0.0002
    CHARGE:  cpu time      0.1108: real time      0.1117
    --------------------------------------------
      LOOP:  cpu time      6.1639: real time      6.1979

 eigenvalue-minimisations  :     0
 total energy-change (2. order) :-0.3357063E-06  (-0.1069296E-05)
 number of electron      51.9999997 magnetization 
 augmentation part        1.2839120 magnetization 

 DIPCOR: dipole corrections for dipol
 direction  1 min pos     1, direction  2 min pos     1, direction  3 min pos     1,
 dipolmoment          -0.108173      0.738756     -0.364116 electrons x Angstroem
 Tr[quadrupol]        32.295390

 energy correction for charged system         0.000000 eV
 dipol+quadrupol energy correction           -0.002601 eV
 added-field ion interaction         -0.108001 eV  (added to PSCEN)


 Free energy of the ion-electron system (eV)
  ---------------------------------------------------
  alpha Z        PSCENC =         1.33490105
  Ewald energy   TEWEN  =      3957.29976010
  -Hartree energ DENC   =     -5264.10099063
  -exchange      EXHF   =       108.21438643
  -V(xc)+E(xc)   XCENC  =       137.64542145
  PAW double counting   =      3913.53214507    -3922.35738524
  entropy T*S    EENTRO =        -0.00000000
  eigenvalues    EBANDS =      -699.37159316
  atomic energy  EATOM  =      1612.77738675
  ---------------------------------------------------
  free energy    TOTEN  =      -155.02596818 eV

  energy without entropy =     -155.02596818  energy(sigma->0) =     -155.02596818
  exchange ACFDT corr.  =        -0.00000000  see jH, gK, PRB 81, 115126


--------------------------------------------------------------------------------------------------------




--------------------------------------- Iteration      1(  58)  ---------------------------------------


    POTLOK:  cpu time      0.8602: real time      0.8631
    SETDIJ:  cpu time      0.0028: real time      0.0028
    TRIAL :  cpu time      5.1791: real time      5.2107
    CORREC:  cpu time      0.0002: real time      0.0002
    CHARGE:  cpu time      0.1109: real time      0.1117
    --------------------------------------------
      LOOP:  cpu time      6.1533: real time      6.1887

 eigenvalue-minimisations  :     0
 total energy-change (2. order) :-0.1270062E-05  (-0.8880906E-06)
 number of electron      51.9999997 magnetization 
 augmentation part        1.2839114 magnetization 

 DIPCOR: dipole corrections for dipol
 direction  1 min pos     1, direction  2 min pos     1, direction  3 min pos     1,
 dipolmoment          -0.108163      0.738771     -0.364109 electrons x Angstroem
 Tr[quadrupol]        32.295191

 energy correction for charged system         0.000000 eV
 dipol+quadrupol energy correction           -0.002601 eV
 added-field ion interaction         -0.108000 eV  (added to PSCEN)


 Free energy of the ion-electron system (eV)
  ---------------------------------------------------
  alpha Z        PSCENC =         1.33490174
  Ewald energy   TEWEN  =      3957.29976010
  -Hartree energ DENC   =     -5264.10264020
  -exchange      EXHF   =       108.21442252
  -V(xc)+E(xc)   XCENC  =       137.64563816
  PAW double counting   =      3913.53366739    -3922.35890888
  entropy T*S    EENTRO =        -0.00000000
  eigenvalues    EBANDS =      -699.37019704
  atomic energy  EATOM  =      1612.77738675
  ---------------------------------------------------
  free energy    TOTEN  =      -155.02596945 eV

  energy without entropy =     -155.02596945  energy(sigma->0) =     -155.02596945
  exchange ACFDT corr.  =        -0.00000000  see jH, gK, PRB 81, 115126


--------------------------------------------------------------------------------------------------------




--------------------------------------- Iteration      1(  59)  ---------------------------------------


    POTLOK:  cpu time      0.8607: real time      0.8642
    SETDIJ:  cpu time      0.0024: real time      0.0024
    TRIAL :  cpu time      5.1755: real time      5.2057
    CORREC:  cpu time      0.0001: real time      0.0001
    EDDIAG:  cpu time      4.8563: real time      4.8860
    CHARGE:  cpu time      0.1111: real time      0.1117
    --------------------------------------------
      LOOP:  cpu time     11.0063: real time     11.0703

 eigenvalue-minimisations  :     0
 total energy-change (2. order) : 0.8466959E-06  (-0.9040663E-06)
 number of electron      51.9999997 magnetization 
 augmentation part        1.2839121 magnetization 

 DIPCOR: dipole corrections for dipol
 direction  1 min pos     1, direction  2 min pos     1, direction  3 min pos     1,
 dipolmoment          -0.108162      0.738761     -0.364114 electrons x Angstroem
 Tr[quadrupol]        32.295432

 energy correction for charged system         0.000000 eV
 dipol+quadrupol energy correction           -0.002601 eV
 added-field ion interaction         -0.108000 eV  (added to PSCEN)


 Free energy of the ion-electron system (eV)
  ---------------------------------------------------
  alpha Z        PSCENC =         1.33490246
  Ewald energy   TEWEN  =      3957.29976010
  -Hartree energ DENC   =     -5264.10065473
  -exchange      EXHF   =       108.21442571
  -V(xc)+E(xc)   XCENC  =       137.64542243
  PAW double counting   =      3913.53197942    -3922.35721915
  entropy T*S    EENTRO =        -0.00000000
  eigenvalues    EBANDS =      -699.37193382
  atomic energy  EATOM  =      1612.77738675
  ---------------------------------------------------
  free energy    TOTEN  =      -155.02596861 eV

  energy without entropy =     -155.02596861  energy(sigma->0) =     -155.02596861
  exchange ACFDT corr.  =        -0.00000000  see jH, gK, PRB 81, 115126


--------------------------------------------------------------------------------------------------------


  average scaling for gradient   0.6182


 average (electrostatic) potential at core
  the test charge radii are     0.6991  0.5201  0.7089
  (the norm of the test charge is              1.0000)
       1 -54.7313       2 -54.8822       3 -54.9658       4 -55.1977       5 -54.9632
       6 -55.5225       7 -56.4167       8 -56.3909       9 -38.5300      10 -38.2806
      11 -38.3555      12 -38.5434      13 -38.3980      14 -38.4538      15 -38.5387
      16 -38.6122      17 -38.4486      18 -38.6753      19 -38.6813      20 -38.8397
      21 -39.0200      22 -39.6274      23 -39.4623      24 -68.8048
 
 
 
 E-fermi :  -8.1014     XC(G=0):  -0.2711     alpha+bet : -0.1650

 Fermi energy:        -8.1013758601

 k-point     1 :       0.0000    0.0000    0.0000
  band No.  band energies     occupation 
      1     -24.5825      2.00000
      2     -23.0516      2.00000
      3     -21.7981      2.00000
      4     -20.5239      2.00000
      5     -18.5366      2.00000
      6     -18.0427      2.00000
      7     -16.1283      2.00000
      8     -15.5690      2.00000
      9     -14.0163      2.00000
     10     -13.2952      2.00000
     11     -13.2195      2.00000
     12     -12.6271      2.00000
     13     -11.8043      2.00000
     14     -11.3109      2.00000
     15     -11.2405      2.00000
     16     -10.7994      2.00000
     17     -10.3289      2.00000
     18      -9.9432      2.00000
     19      -9.8621      2.00000
     20      -9.6897      2.00000
     21      -9.3307      2.00000
     22      -9.2604      2.00000
     23      -8.9305      2.00000
     24      -8.8019      2.00000
     25      -8.6626      2.00000
     26      -8.3304      2.00000
     27      -0.3899      0.00000
     28      -0.0726      0.00000
     29       0.0562      0.00000
     30       0.1262      0.00000
     31       0.2141      0.00000
     32       0.3184      0.00000
     33       0.4390      0.00000
     34       0.4647      0.00000
     35       0.5644      0.00000
     36       0.5919      0.00000
     37       0.6019      0.00000
     38       0.6342      0.00000
     39       0.6911      0.00000
     40       0.7516      0.00000


--------------------------------------------------------------------------------------------------------


 soft charge-density along one line, spin component           1
         0         1         2         3         4         5         6         7         8         9
 total charge-density along one line
 
 pseudopotential strength for first ion, spin component:           1
  9.972  13.256  -0.000   0.000   0.000   0.001  -0.000   0.000
 13.256  17.620  -0.000   0.000   0.000   0.001  -0.000   0.000
 -0.000  -0.000  -4.254   0.001  -0.001   8.342  -0.001   0.002
  0.000   0.000   0.001  -4.253   0.001  -0.001   8.340  -0.002
  0.000   0.000  -0.001   0.001  -4.252   0.002  -0.002   8.338
  0.001   0.001   8.342  -0.001   0.002 -18.480   0.002  -0.003
 -0.000  -0.000  -0.001   8.340  -0.002   0.002 -18.478   0.003
  0.000   0.000   0.002  -0.002   8.338  -0.003   0.003 -18.474
 total augmentation occupancy for first ion, spin component:           1
  7.330  -3.115  -0.029  -0.013  -0.038  -0.003  -0.008  -0.012
 -3.115   1.346   0.012   0.007   0.021   0.001   0.006   0.009
 -0.029   0.012   1.611  -0.015   0.011   0.130  -0.003   0.003
 -0.013   0.007  -0.015   1.576  -0.008  -0.003   0.130   0.000
 -0.038   0.021   0.011  -0.008   1.584   0.003   0.000   0.126
 -0.003   0.001   0.130  -0.003   0.003   0.011  -0.000   0.000
 -0.008   0.006  -0.003   0.130   0.000  -0.000   0.011   0.000
 -0.012   0.009   0.003   0.000   0.126   0.000   0.000   0.010


------------------------ aborting loop because EDIFF is reached ----------------------------------------





 total charge

# of ion       s       p       d       tot
------------------------------------------
    1        0.837   1.780   0.000   2.617
    2        0.835   1.785   0.000   2.620
    3        0.841   1.773   0.000   2.614
    4        0.832   1.782   0.000   2.614
    5        0.838   1.778   0.000   2.616
    6        0.840   1.786   0.000   2.626
    7        0.832   1.782   0.000   2.614
    8        0.935   1.768   0.000   2.703
    9        0.659   0.046   0.000   0.705
   10        0.639   0.041   0.000   0.680
   11        0.643   0.042   0.000   0.685
   12        0.658   0.045   0.000   0.703
   13        0.645   0.042   0.000   0.687
   14        0.651   0.042   0.000   0.693
   15        0.649   0.042   0.000   0.690
   16        0.651   0.044   0.000   0.695
   17        0.636   0.041   0.000   0.678
   18        0.650   0.044   0.000   0.694
   19        0.640   0.042   0.000   0.681
   20        0.644   0.042   0.000   0.686
   21        0.651   0.044   0.000   0.694
   22        0.641   0.045   0.000   0.686
   23        0.620   0.040   0.000   0.660
   24        1.327   2.470   0.000   3.797
--------------------------------------------------
tot         17.792  17.346   0.000  35.138
 
    FORLOC:  cpu time      0.0546: real time      0.0548
    FORHF :  cpu time      2.7898: real time      2.8065
    FORNL :  cpu time      0.1023: real time      0.1029
    FORCOR:  cpu time      0.8629: real time      0.8661
    OFIELD:  cpu time      0.0019: real time      0.0020

 VOLUME and BASIS-vectors are now :
 -----------------------------------------------------------------------------
  energy-cutoff  :      500.00
  volume of cell :     8000.00
      direct lattice vectors                 reciprocal lattice vectors
    20.000000000  0.000000000  0.000000000     0.050000000  0.000000000  0.000000000
     0.000000000 20.000000000  0.000000000     0.000000000  0.050000000  0.000000000
     0.000000000  0.000000000 20.000000000     0.000000000  0.000000000  0.050000000

  length of vectors
    20.000000000 20.000000000 20.000000000     0.050000000  0.050000000  0.050000000


 FORCES acting on ions:
    Electron-Ion                     Ewald-Force                    Non-Local-Force
 -----------------------------------------------------------------------------------------------
   -.164E+03 0.668E+01 -.884E+02   0.164E+03 -.609E+01 0.884E+02   0.295E+00 0.269E+00 0.313E+00
   -.125E+03 -.290E+02 0.722E+02   0.125E+03 0.289E+02 -.725E+02   0.454E+00 -.753E+00 0.736E+00
   -.316E+02 -.395E+01 -.133E+03   0.313E+02 0.454E+01 0.133E+03   -.286E+00 -.338E+00 0.642E+00
   -.101E+02 -.598E+02 0.277E+02   0.110E+02 0.603E+02 -.274E+02   -.434E+00 -.932E+00 0.282E+00
   -.175E+02 0.141E+03 0.149E+03   0.179E+02 -.141E+03 -.149E+03   0.294E+00 -.313E+00 -.105E+01
   0.847E+02 0.286E+02 -.142E+03   -.822E+02 -.285E+02 0.144E+03   -.257E+01 0.753E-01 -.748E-01
   0.173E+03 0.619E+02 0.111E+02   -.173E+03 -.664E+02 -.869E+01   -.168E+01 0.445E+01 -.266E+01
   0.985E+02 -.103E+01 0.199E+02   -.990E+02 -.908E+00 -.190E+02   -.115E+00 0.328E+01 -.154E+01
   -.317E+02 0.644E+02 -.304E+02   0.324E+02 -.699E+02 0.320E+02   -.217E+00 0.542E+01 -.145E+01
   -.145E+02 -.317E+02 -.673E+02   0.135E+02 0.341E+02 0.712E+02   0.131E+01 -.258E+01 -.435E+01
   -.739E+02 -.225E+02 0.116E+02   0.784E+02 0.241E+02 -.131E+02   -.447E+01 -.210E+01 0.206E+01
   -.343E+02 -.648E+02 0.411E+02   0.349E+02 0.695E+02 -.441E+02   -.911E+00 -.480E+01 0.269E+01
   -.382E+02 0.538E+02 0.471E+02   0.388E+02 -.571E+02 -.502E+02   -.601E+00 0.431E+01 0.298E+01
   0.396E+00 -.495E+02 -.710E+02   -.783E+00 0.530E+02 0.748E+02   0.550E+00 -.356E+01 -.396E+01
   -.350E+01 0.671E+02 -.549E+02   0.316E+01 -.715E+02 0.572E+02   0.133E+00 0.468E+01 -.240E+01
   -.151E+02 -.744E+02 0.362E+02   0.154E+02 0.791E+02 -.386E+02   -.605E+00 -.493E+01 0.239E+01
   -.481E+02 0.886E+01 0.673E+02   0.516E+02 -.829E+01 -.700E+02   -.414E+01 -.102E+01 0.303E+01
   0.363E+02 0.302E+02 0.677E+02   -.401E+02 -.308E+02 -.710E+02   0.400E+01 0.369E+00 0.360E+01
   -.865E+01 0.846E+02 -.817E+01   0.926E+01 -.888E+02 0.103E+02   -.820E+00 0.449E+01 -.265E+01
   0.220E+02 -.446E+02 -.728E+02   -.224E+02 0.480E+02 0.764E+02   0.546E+00 -.365E+01 -.386E+01
   0.255E+02 0.676E+02 -.534E+02   -.257E+02 -.724E+02 0.559E+02   0.480E+00 0.479E+01 -.257E+01
   0.365E+02 0.553E+02 0.524E+02   -.366E+02 -.590E+02 -.562E+02   0.323E+00 0.381E+01 0.400E+01
   0.792E+02 0.161E+02 -.320E+02   -.829E+02 -.164E+02 0.341E+02   0.443E+01 0.725E+00 -.254E+01
   0.648E+02 -.279E+03 0.140E+03   -.642E+02 0.316E+03 -.157E+03   -.560E+00 -.351E+02 0.162E+02
 -----------------------------------------------------------------------------------------------
   0.485E+01 0.258E+02 -.109E+02   0.142E-13 -.114E-12 -.853E-13   -.459E+01 -.234E+02 0.988E+01
 
 
 POSITION                                       TOTAL-FORCE (eV/Angst)
 -----------------------------------------------------------------------------------
     13.16298      9.95541     11.16630         0.460688      0.871010      0.278231
     12.09872     10.11022     10.09471         0.599192     -0.860657      0.542772
     10.75904     10.01265     10.77409        -0.604808      0.238788      0.269942
      9.60992     10.16067      9.77675         0.468959     -0.442917      0.614408
      9.76897      9.03722      8.78030         0.680782     -0.141242     -1.486063
      8.28152     10.01725     10.47876        -0.196237      0.238763      1.152193
      7.12020     10.15843      9.53975        -1.910084      0.116731     -0.330014
      7.15486     11.48302      8.90097        -0.530816      1.655551     -0.815793
     13.21502      8.90177     11.44151         0.515848      0.083044      0.059424
     12.87984     10.51613     12.09033         0.411989     -0.237663     -0.656318
     14.10216     10.37349     10.74992        -0.135200     -0.648368      0.690972
     12.26127     11.05144      9.55898        -0.303570     -0.256489     -0.182152
     12.21908      9.21027      9.44291        -0.032110      1.132125     -0.000756
     10.65113     10.75793     11.58776         0.184619     -0.192984     -0.382335
     10.72115      9.01586     11.26913        -0.205652      0.483655     -0.210861
      9.71617     11.14904      9.29452        -0.278978     -0.364246      0.118347
     10.66370      9.24793      8.14045        -0.744731     -0.487526      0.491317
      8.92994      8.95981      8.06657         0.327413     -0.223811      0.426432
      9.93280      8.08962      9.34226        -0.243961      0.415147     -0.653224
      8.16330     10.78576     11.27646         0.172533     -0.428013     -0.407366
      8.18861      9.03976     10.98340         0.250647      0.252311     -0.182436
      7.07578      9.40195      8.73630         0.223478      0.257764      0.381436
      6.14698     10.01995     10.09756         0.861296      0.411441     -0.571684
      7.17685     12.54443      8.41035         0.028704     -1.872413      0.853527
 -----------------------------------------------------------------------------------
    total drift:                               -0.002673     -0.000894     -0.000237


--------------------------------------------------------------------------------------------------------



  FREE ENERGIE OF THE ION-ELECTRON SYSTEM (eV)
  ---------------------------------------------------
  free  energy   TOTEN  =      -155.02596861 eV

  energy  without entropy=     -155.02596861  energy(sigma->0) =     -155.02596861
 


--------------------------------------------------------------------------------------------------------


    POTLOK:  cpu time      0.8715: real time      0.8751


--------------------------------------------------------------------------------------------------------


 writing wavefunctions
     LOOP+:  cpu time    368.1088: real time    373.8735
    4ORBIT:  cpu time      0.0000: real time      0.0000



 total charge

# of ion       s       p       d       tot
------------------------------------------
    1        0.837   1.780   0.000   2.617
    2        0.835   1.785   0.000   2.620
    3        0.841   1.773   0.000   2.614
    4        0.832   1.782   0.000   2.614
    5        0.838   1.778   0.000   2.616
    6        0.840   1.786   0.000   2.626
    7        0.832   1.782   0.000   2.614
    8        0.935   1.768   0.000   2.703
    9        0.659   0.046   0.000   0.705
   10        0.639   0.041   0.000   0.680
   11        0.643   0.042   0.000   0.685
   12        0.658   0.045   0.000   0.703
   13        0.645   0.042   0.000   0.687
   14        0.651   0.042   0.000   0.693
   15        0.649   0.042   0.000   0.690
   16        0.651   0.044   0.000   0.695
   17        0.636   0.041   0.000   0.678
   18        0.650   0.044   0.000   0.694
   19        0.640   0.042   0.000   0.681
   20        0.644   0.042   0.000   0.686
   21        0.651   0.044   0.000   0.694
   22        0.641   0.045   0.000   0.686
   23        0.620   0.040   0.000   0.660
   24        1.327   2.470   0.000   3.797
--------------------------------------------------
tot         17.792  17.346   0.000  35.138
 

 total amount of memory used by VASP MPI-rank0   755118. kBytes
=======================================================================

   base      :      30000. kBytes
   nonl-proj :      29279. kBytes
   fftplans  :      75720. kBytes
   grid      :      92179. kBytes
   one-center:         18. kBytes
   HF        :          9. kBytes
   nonlr-proj:       1013. kBytes
   wavefun   :      12207. kBytes
   fock_wrk  :     514693. kBytes
 
  
  
 General timing and accounting informations for this job:
 ========================================================
  
                  Total CPU time used (sec):      385.592
                            User time (sec):      339.291
                          System time (sec):       46.302
                         Elapsed time (sec):      396.470
  
                   Maximum memory used (kb):     1236512.
                   Average memory used (kb):          N/A
  
                          Minor page faults:      1483992
                          Major page faults:           48
                 Voluntary context switches:        20956
