Molecule_POSCAR_08                      
   1.00000000000000     
    30.0000000000000000    0.0000000000000000    0.0000000000000000
     0.0000000000000000   30.0000000000000000    0.0000000000000000
     0.0000000000000000    0.0000000000000000   30.0000000000000000
   C    H    N    O    S 
    28    36     2     4     2
Direct
  0.3058611666666664  0.6158268666666658  0.5049618333333328
  0.3300301333333309  0.5809326666666692  0.5312688666666645
  0.2989190999999991  0.5533635666666683  0.5590855666666670
  0.2647930666666696  0.5295213333333351  0.5315617999999986
  0.2884123999999986  0.4983408000000011  0.4988190666666696
  0.2557940666666667  0.4736285333333328  0.4710423666666657
  0.2753680666666654  0.4432316666666694  0.4378035333333301
  0.3008284333333364  0.4038915000000003  0.4491573666666682
  0.3485627666666673  0.3988549666666685  0.5213936333333322
  0.3966365666666647  0.4033122333333310  0.5319661666666633
  0.4212190333333368  0.4004651999999993  0.5709083666666643
  0.4635754666666685  0.4173588999999964  0.4953999000000024
  0.4956428666666639  0.4264944999999969  0.4620255000000029
  0.5400868666666696  0.4438978666666671  0.3842952999999980
  0.5627882000000000  0.4406065000000012  0.4249135999999964
  0.5419175666666689  0.4323269333333357  0.4621292333333358
  0.5752111666666693  0.4309158333333301  0.4991597333333360
  0.6608063999999985  0.4408348666666697  0.5046708666666646
  0.6716288333333367  0.4873350333333306  0.5208596666666665
  0.7165187333333307  0.4857157666666652  0.5447313333333312
  0.7299424333333349  0.5310566666666645  0.5621210333333337
  0.7341251333333361  0.5652329666666702  0.5250432666666640
  0.7476809333333350  0.6089678666666671  0.5461683333333340
  0.7517431999999999  0.6431842666666654  0.5083746999999974
  0.7860667333333353  0.6288060999999985  0.4751320000000021
  0.6113533333333336  0.4451804333333342  0.4351982666666672
  0.4182835333333301  0.4117558666666667  0.4946321666666691
  0.3850487999999999  0.4132292666666686  0.4575608333333321
  0.3049894666666688  0.6053247333333331  0.4688427000000033
  0.3223034999999967  0.6480170666666680  0.5079402666666653
  0.2697656666666646  0.6185096333333320  0.5150463000000016
  0.3505767999999989  0.5603825333333319  0.5081546999999986
  0.3550302333333306  0.5985312333333326  0.5527979666666667
  0.3192102000000006  0.5294751666666642  0.5791261666666685
  0.2819609000000014  0.5761587000000006  0.5828065333333328
  0.2449011333333360  0.5548422333333320  0.5134534999999971
  0.2419884666666690  0.5108560999999980  0.5532485333333312
  0.3105054999999979  0.4765569333333346  0.5165943666666664
  0.3076768999999970  0.5204815999999965  0.4757101666666657
  0.2345189999999988  0.5005198666666644  0.4544421666666665
  0.2300631999999965  0.4561778333333351  0.4922810666666635
  0.2450827333333336  0.4305825333333360  0.4171456333333339
  0.2928542333333368  0.4638721000000032  0.4099825666666632
  0.3089701000000034  0.3851091333333301  0.4168625333333367
  0.2763125333333321  0.3797022666666692  0.4667001666666692
  0.4097365000000011  0.3937568999999996  0.6053190000000015
  0.5478465666666636  0.4499666000000033  0.3507056999999989
  0.6885102666666683  0.4292056666666682  0.4835655333333335
  0.6594995333333316  0.4182865666666657  0.5342401999999993
  0.6726949666666684  0.5092389333333358  0.4919109333333367
  0.6465628999999993  0.4997183333333339  0.5450544666666701
  0.7150579666666701  0.4632063999999971  0.5739809000000022
  0.7429015666666672  0.4731627999999972  0.5226103999999978
  0.7082260999999974  0.5422742333333304  0.5890821666666639
  0.7640064666666646  0.5268984666666654  0.5763802000000027
  0.7009787000000003  0.5697091666666694  0.5081853000000010
  0.7594628666666665  0.5558638666666695  0.5004841666666664
  0.7241927333333322  0.6209950666666657  0.5713831999999996
  0.7804006666666652  0.6036811000000029  0.5623961666666659
  0.7189059000000029  0.6470433333333361  0.4921562333333327
  0.7620582999999996  0.6758791333333320  0.5230367999999999
  0.8077316666666690  0.6025016999999977  0.4893200666666644
  0.8078206666666645  0.6577845333333343  0.4662894000000009
  0.7689998333333321  0.6154774000000032  0.4448589333333359
  0.3411771666666681  0.4050749666666675  0.4746681333333314
  0.6185243333333332  0.4390825999999990  0.4813630333333307
  0.3179087333333328  0.3908484000000030  0.5483735333333328
  0.5679666999999995  0.4238694666666660  0.5395948333333322
  0.6427792333333358  0.4531514666666681  0.4088333333333338
  0.3914351333333315  0.4202589333333364  0.4168461333333369
  0.4756216999999978  0.4099047666666635  0.5540974333333324
  0.4834371666666684  0.4337906000000018  0.4037442333333345
 
  0.00000000E+00  0.00000000E+00  0.00000000E+00
  0.00000000E+00  0.00000000E+00  0.00000000E+00
  0.00000000E+00  0.00000000E+00  0.00000000E+00
  0.00000000E+00  0.00000000E+00  0.00000000E+00
  0.00000000E+00  0.00000000E+00  0.00000000E+00
  0.00000000E+00  0.00000000E+00  0.00000000E+00
  0.00000000E+00  0.00000000E+00  0.00000000E+00
  0.00000000E+00  0.00000000E+00  0.00000000E+00
  0.00000000E+00  0.00000000E+00  0.00000000E+00
  0.00000000E+00  0.00000000E+00  0.00000000E+00
  0.00000000E+00  0.00000000E+00  0.00000000E+00
  0.00000000E+00  0.00000000E+00  0.00000000E+00
  0.00000000E+00  0.00000000E+00  0.00000000E+00
  0.00000000E+00  0.00000000E+00  0.00000000E+00
  0.00000000E+00  0.00000000E+00  0.00000000E+00
  0.00000000E+00  0.00000000E+00  0.00000000E+00
  0.00000000E+00  0.00000000E+00  0.00000000E+00
  0.00000000E+00  0.00000000E+00  0.00000000E+00
  0.00000000E+00  0.00000000E+00  0.00000000E+00
  0.00000000E+00  0.00000000E+00  0.00000000E+00
  0.00000000E+00  0.00000000E+00  0.00000000E+00
  0.00000000E+00  0.00000000E+00  0.00000000E+00
  0.00000000E+00  0.00000000E+00  0.00000000E+00
  0.00000000E+00  0.00000000E+00  0.00000000E+00
  0.00000000E+00  0.00000000E+00  0.00000000E+00
  0.00000000E+00  0.00000000E+00  0.00000000E+00
  0.00000000E+00  0.00000000E+00  0.00000000E+00
  0.00000000E+00  0.00000000E+00  0.00000000E+00
  0.00000000E+00  0.00000000E+00  0.00000000E+00
  0.00000000E+00  0.00000000E+00  0.00000000E+00
  0.00000000E+00  0.00000000E+00  0.00000000E+00
  0.00000000E+00  0.00000000E+00  0.00000000E+00
  0.00000000E+00  0.00000000E+00  0.00000000E+00
  0.00000000E+00  0.00000000E+00  0.00000000E+00
  0.00000000E+00  0.00000000E+00  0.00000000E+00
  0.00000000E+00  0.00000000E+00  0.00000000E+00
  0.00000000E+00  0.00000000E+00  0.00000000E+00
  0.00000000E+00  0.00000000E+00  0.00000000E+00
  0.00000000E+00  0.00000000E+00  0.00000000E+00
  0.00000000E+00  0.00000000E+00  0.00000000E+00
  0.00000000E+00  0.00000000E+00  0.00000000E+00
  0.00000000E+00  0.00000000E+00  0.00000000E+00
  0.00000000E+00  0.00000000E+00  0.00000000E+00
  0.00000000E+00  0.00000000E+00  0.00000000E+00
  0.00000000E+00  0.00000000E+00  0.00000000E+00
  0.00000000E+00  0.00000000E+00  0.00000000E+00
  0.00000000E+00  0.00000000E+00  0.00000000E+00
  0.00000000E+00  0.00000000E+00  0.00000000E+00
  0.00000000E+00  0.00000000E+00  0.00000000E+00
  0.00000000E+00  0.00000000E+00  0.00000000E+00
  0.00000000E+00  0.00000000E+00  0.00000000E+00
  0.00000000E+00  0.00000000E+00  0.00000000E+00
  0.00000000E+00  0.00000000E+00  0.00000000E+00
  0.00000000E+00  0.00000000E+00  0.00000000E+00
  0.00000000E+00  0.00000000E+00  0.00000000E+00
  0.00000000E+00  0.00000000E+00  0.00000000E+00
  0.00000000E+00  0.00000000E+00  0.00000000E+00
  0.00000000E+00  0.00000000E+00  0.00000000E+00
  0.00000000E+00  0.00000000E+00  0.00000000E+00
  0.00000000E+00  0.00000000E+00  0.00000000E+00
  0.00000000E+00  0.00000000E+00  0.00000000E+00
  0.00000000E+00  0.00000000E+00  0.00000000E+00
  0.00000000E+00  0.00000000E+00  0.00000000E+00
  0.00000000E+00  0.00000000E+00  0.00000000E+00
  0.00000000E+00  0.00000000E+00  0.00000000E+00
  0.00000000E+00  0.00000000E+00  0.00000000E+00
  0.00000000E+00  0.00000000E+00  0.00000000E+00
  0.00000000E+00  0.00000000E+00  0.00000000E+00
  0.00000000E+00  0.00000000E+00  0.00000000E+00
  0.00000000E+00  0.00000000E+00  0.00000000E+00
  0.00000000E+00  0.00000000E+00  0.00000000E+00
  0.00000000E+00  0.00000000E+00  0.00000000E+00
