Molecule_POSCAR_10
1.0
20.000000 0.000000 0.000000
0.000000 20.000000 0.000000
0.000000 0.000000 20.000000
C H N
8 15 1
Cartesian
13.162975 9.955406 11.166301
12.098723 10.110221 10.094705
10.759036 10.012654 10.774092
9.609915 10.160671 9.776745
9.768974 9.037220 8.780302
8.281519 10.017252 10.478759
7.120201 10.158429 9.539748
7.154857 11.483024 8.900968
13.215021 8.901770 11.441508
12.879845 10.516133 12.090325
14.102163 10.373486 10.749922
12.261271 11.051441 9.558979
12.219085 9.210270 9.442906
10.651135 10.757925 11.587758
10.721148 9.015858 11.269127
9.716168 11.149036 9.294517
10.663698 9.247933 8.140450
8.929943 8.959808 8.066565
9.932798 8.089621 9.342258
8.163304 10.785758 11.276459
8.188610 9.039761 10.983400
7.075782 9.401945 8.736299
6.146981 10.019946 10.097556
7.176849 12.544432 8.410352
