Molecule_POSCAR_06
1.0
20.000000 0.000000 0.000000
0.000000 20.000000 0.000000
0.000000 0.000000 20.000000
C H N
8 15 1
Cartesian
6.331435 9.726417 10.055076
7.627378 10.313040 10.583771
8.738428 9.760139 9.729801
10.101198 10.271240 10.154806
11.077241 9.621725 9.201860
12.502495 10.014586 9.470955
12.928352 9.618314 10.871074
12.715726 11.449483 9.288645
6.336309 8.626969 10.114750
6.219048 9.966416 8.959882
5.452575 10.088931 10.592647
7.710624 9.967865 11.641066
7.571552 11.403967 10.495268
8.690736 8.666221 9.714822
8.571444 10.167220 8.696510
10.076553 11.373809 10.060891
10.320726 10.022215 11.212533
10.807871 9.910402 8.184117
10.999962 8.524026 9.365841
13.136656 9.429805 8.774210
13.945659 9.138344 10.859284
12.228685 8.845797 11.280198
13.017423 10.502490 11.529123
12.891925 12.590579 9.162871
