Molecule_POSCAR_09
1.0
20.000000 0.000000 0.000000
0.000000 20.000000 0.000000
0.000000 0.000000 20.000000
C H N
9 17 1
Cartesian
12.446618 8.335126 10.897374
11.565410 9.270327 10.095234
10.238242 9.437686 10.793346
9.297710 10.337684 10.077330
9.824754 11.742934 9.893443
10.117003 12.412611 11.223977
8.944218 9.824205 8.686196
8.300955 8.467296 8.864602
7.904946 10.688928 8.104201
13.043530 8.869249 11.661600
11.728312 7.610948 11.386166
13.065074 7.731574 10.198996
12.051432 10.250625 9.938257
11.410767 8.806178 9.100221
10.425040 9.843245 11.792635
9.759413 8.452659 10.913045
8.377885 10.429601 10.690882
9.005569 12.325225 9.420011
10.704496 11.743612 9.242307
9.282571 12.180817 11.923355
10.046221 13.512810 11.029419
11.093937 12.109357 11.595466
9.809312 9.803525 8.020184
7.842224 8.445707 9.873074
9.105868 7.702335 8.837314
7.522516 8.277389 8.084584
7.085978 11.388346 7.656783
