Molecule_POSCAR_03
1.0
20.000000 0.000000 0.000000
0.000000 20.000000 0.000000
0.000000 0.000000 20.000000
C H N O
7 13 1 1
Cartesian
12.945809 9.173765 10.061755
11.645339 9.937860 10.168006
10.711953 9.593563 9.018052
9.469248 10.442245 9.054375
8.688211 10.257314 10.330688
7.444887 11.124779 10.330559
6.759634 10.876110 11.601335
12.812577 8.084798 10.228050
13.393510 9.325825 9.048575
13.638886 9.636094 10.807096
11.882289 11.013620 10.103508
11.166469 9.667025 11.142638
11.289656 9.807587 8.090769
10.760062 7.835724 9.932544
8.850015 10.192157 8.175943
9.753291 11.501167 8.961159
8.325432 9.200932 10.380719
9.288281 10.438243 11.225264
7.689337 12.200849 10.188740
6.825619 10.759901 9.462119
6.215672 10.695080 12.627607
10.443824 8.235362 9.060498
