  124  124    1    1
  0.2177419E+03  0.3000000E-08  0.3000000E-08  0.3000000E-08  0.5000000E-15
  1.000000000000000E-004
  CAR 
 Step2_PBE0_Final_Calc                   
    284      1    208
 
  0.0000000E+00  0.0000000E+00  0.0000000E+00  0.1000000E+01
    1      -25.551461   1.000000
    2      -24.879846   1.000000
    3      -24.637373   1.000000
    4      -24.212522   1.000000
    5      -23.793808   1.000000
    6      -23.629269   1.000000
    7      -23.594923   1.000000
    8      -23.343901   1.000000
    9      -23.036495   1.000000
   10      -22.685780   1.000000
   11      -22.394591   1.000000
   12      -22.283562   1.000000
   13      -21.727587   1.000000
   14      -21.271784   1.000000
   15      -20.713157   1.000000
   16      -20.605481   1.000000
   17      -20.556428   1.000000
   18      -20.317646   1.000000
   19      -19.667621   1.000000
   20      -19.288462   1.000000
   21      -19.263716   1.000000
   22      -19.214586   1.000000
   23      -19.179685   1.000000
   24      -19.121355   1.000000
   25      -19.081875   1.000000
   26      -19.026666   1.000000
   27      -18.990012   1.000000
   28      -18.972503   1.000000
   29      -18.911112   1.000000
   30      -18.751574   1.000000
   31      -18.657661   1.000000
   32      -18.527830   1.000000
   33      -18.466327   1.000000
   34      -18.145238   1.000000
   35      -17.422833   1.000000
   36      -17.371194   1.000000
   37      -17.232532   1.000000
   38      -17.083082   1.000000
   39      -16.898672   1.000000
   40      -16.462866   1.000000
   41      -16.405564   1.000000
   42      -16.217993   1.000000
   43      -15.560683   1.000000
   44      -15.192417   1.000000
   45      -14.790072   1.000000
   46      -14.720811   1.000000
   47      -14.511971   1.000000
   48      -14.420168   1.000000
   49      -14.350933   1.000000
   50      -14.225341   1.000000
   51      -13.765586   1.000000
   52      -13.527649   1.000000
   53      -13.422443   1.000000
   54      -13.380999   1.000000
   55      -13.135467   1.000000
   56      -13.045558   1.000000
   57      -12.861104   1.000000
   58      -12.828586   1.000000
   59      -12.744604   1.000000
   60      -12.736036   1.000000
   61      -12.613579   1.000000
   62      -12.582781   1.000000
   63      -12.550415   1.000000
   64      -12.444173   1.000000
   65      -12.410836   1.000000
   66      -12.371495   1.000000
   67      -12.294263   1.000000
   68      -12.275710   1.000000
   69      -12.242735   1.000000
   70      -12.153116   1.000000
   71      -12.141036   1.000000
   72      -12.010249   1.000000
   73      -11.975771   1.000000
   74      -11.917612   1.000000
   75      -11.809224   1.000000
   76      -11.799378   1.000000
   77      -11.654875   1.000000
   78      -11.513325   1.000000
   79      -11.330639   1.000000
   80      -11.295232   1.000000
   81      -11.242534   1.000000
   82      -11.185087   1.000000
   83      -11.131773   1.000000
   84      -11.088554   1.000000
   85      -10.991853   1.000000
   86      -10.928523   1.000000
   87      -10.799359   1.000000
   88      -10.716280   1.000000
   89      -10.706079   1.000000
   90      -10.590039   1.000000
   91      -10.438834   1.000000
   92      -10.331457   1.000000
   93      -10.315713   1.000000
   94      -10.229422   1.000000
   95      -10.157533   1.000000
   96      -10.113468   1.000000
   97      -10.089578   1.000000
   98      -10.060027   1.000000
   99       -9.945131   1.000000
  100       -9.903706   1.000000
  101       -9.855886   1.000000
  102       -9.783260   1.000000
  103       -9.774255   1.000000
  104       -9.733312   1.000000
  105       -9.668404   1.000000
  106       -9.564589   1.000000
  107       -9.560852   1.000000
  108       -9.510554   1.000000
  109       -9.492516   1.000000
  110       -9.455340   1.000000
  111       -9.353450   1.000000
  112       -9.319395   1.000000
  113       -9.316594   1.000000
  114       -9.287013   1.000000
  115       -9.237405   1.000000
  116       -9.170356   1.000000
  117       -9.150000   1.000000
  118       -9.100806   1.000000
  119       -9.025113   1.000000
  120       -8.965566   1.000000
  121       -8.884803   1.000000
  122       -8.805350   1.000000
  123       -8.761780   1.000000
  124       -8.668893   1.000000
  125       -8.632935   1.000000
  126       -8.551728   1.000000
  127       -8.453709   1.000000
  128       -8.311103   1.000000
  129       -8.094247   1.000000
  130       -7.968227   1.000000
  131       -7.810590   1.000000
  132       -7.627077   1.000000
  133       -7.495355   1.000000
  134       -7.209296   1.000000
  135       -6.940495   1.000000
  136       -6.834909   1.000000
  137       -6.687627   1.000000
  138       -6.578331   1.000000
  139       -6.434942   1.000000
  140       -6.343991   1.000000
  141       -6.229851   1.000000
  142       -5.939749   1.000000
  143       -2.809695   0.000000
  144       -0.548148   0.000000
  145       -0.388755   0.000000
  146       -0.199941   0.000000
  147       -0.164468   0.000000
  148       -0.094994   0.000000
  149       -0.028032   0.000000
  150        0.020838   0.000000
  151        0.039986   0.000000
  152        0.118890   0.000000
  153        0.169376   0.000000
  154        0.193245   0.000000
  155        0.225403   0.000000
  156        0.251594   0.000000
  157        0.271810   0.000000
  158        0.299387   0.000000
  159        0.352263   0.000000
  160        0.372696   0.000000
  161        0.374137   0.000000
  162        0.378190   0.000000
  163        0.393299   0.000000
  164        0.414849   0.000000
  165        0.433600   0.000000
  166        0.443520   0.000000
  167        0.447811   0.000000
  168        0.455325   0.000000
  169        0.459598   0.000000
  170        0.537292   0.000000
  171        0.556631   0.000000
  172        0.562768   0.000000
  173        0.582305   0.000000
  174        0.583974   0.000000
  175        0.591244   0.000000
  176        0.596984   0.000000
  177        0.602694   0.000000
  178        0.609565   0.000000
  179        0.622215   0.000000
  180        0.630073   0.000000
  181        0.684225   0.000000
  182        0.688925   0.000000
  183        0.734566   0.000000
  184        0.741448   0.000000
  185        0.777278   0.000000
  186        0.786907   0.000000
  187        0.808399   0.000000
  188        0.817716   0.000000
  189        0.837753   0.000000
  190        0.844048   0.000000
  191        0.854111   0.000000
  192        0.857946   0.000000
  193        0.888026   0.000000
  194        0.903305   0.000000
  195        0.908500   0.000000
  196        0.913130   0.000000
  197        0.943753   0.000000
  198        0.954634   0.000000
  199        0.968040   0.000000
  200        0.980298   0.000000
  201        0.987250   0.000000
  202        1.010606   0.000000
  203        1.045266   0.000000
  204        1.097494   0.000000
  205        1.183228   0.000000
  206        1.165706   0.000000
  207        1.258470   0.000000
  208        1.520482   0.000000
