 vasp.5.4.1 24Jun15 (build Feb 10 2025 21:25:14) gamma-only                     
  
 executed on           IFC91_ompi date 2026.02.18  16:00:15
 running on    4 total cores
 distrk:  each k-point on    4 cores,    1 groups
 distr:  one band on NCORES_PER_BAND=   1 cores,    4 groups


--------------------------------------------------------------------------------------------------------


 INCAR:
 POTCAR:    PAW_PBE C 08Apr2002                   
 POTCAR:    PAW_PBE H 15Jun2001                   
 POTCAR:    PAW_PBE O 08Apr2002                   
 POTCAR:    PAW_PBE P 06Sep2000                   
 POTCAR:    PAW_PBE C 08Apr2002                   
   VRHFIN =C: s2p2                                                              
   LEXCH  = PE                                                                  
   EATOM  =   147.1560 eV,   10.8157 Ry                                         
                                                                                
   TITEL  = PAW_PBE C 08Apr2002                                                 
   LULTRA =        F    use ultrasoft PP ?                                      
   IUNSCR =        1    unscreen: 0-lin 1-nonlin 2-no                           
   RPACOR =    1.200    partial core radius                                     
   POMASS =   12.011; ZVAL   =    4.000    mass and valenz                      
   RCORE  =    1.500    outmost cutoff radius                                   
   RWIGS  =    1.630; RWIGS  =    0.863    wigner-seitz radius (au A)           
   ENMAX  =  400.000; ENMIN  =  300.000 eV                                      
   ICORE  =        2    local potential                                         
   LCOR   =        T    correct aug charges                                     
   LPAW   =        T    paw PP                                                  
   EAUG   =  644.873                                                            
   DEXC   =    0.000                                                            
   RMAX   =    1.529    core radius for proj-oper                               
   RAUG   =    1.300    factor for augmentation sphere                          
   RDEP   =    1.501    radius for radial grids                                 
   RDEPT  =    1.300    core radius for aug-charge                              
                                                                                
   Atomic configuration                                                         
    4 entries                                                                   
     n  l   j            E        occ.                                          
     1  0  0.50      -273.3789   2.0000                                         
     2  0  0.50       -13.7508   2.0000                                         
     2  1  0.50        -5.2854   2.0000                                         
     3  2  1.50        -5.4423   0.0000                                         
   Description                                                                  
     l       E           TYP  RCUT    TYP  RCUT                                 
     0    -13.7508458     23  1.200                                             
     0     -8.2022199     23  1.200                                             
     1     -5.2854383     23  1.500                                             
     1     34.0145650     23  1.500                                             
     2     -5.4423304      7  1.500                                             
  local pseudopotential read in
  partial core-charges read in
  partial kinetic energy density read in
  atomic valenz-charges read in
  non local Contribution for L=           0  read in
    real space projection operators read in
  non local Contribution for L=           0  read in
    real space projection operators read in
  non local Contribution for L=           1  read in
    real space projection operators read in
  non local Contribution for L=           1  read in
    real space projection operators read in
    PAW grid and wavefunctions read in
 
   number of l-projection  operators is LMAX  =           4
   number of lm-projection operators is LMMAX =           8
 
 POTCAR:    PAW_PBE H 15Jun2001                   
   VRHFIN =H: ultrasoft test                                                    
   LEXCH  = PE                                                                  
   EATOM  =    12.4884 eV,    0.9179 Ry                                         
                                                                                
   TITEL  = PAW_PBE H 15Jun2001                                                 
   LULTRA =        F    use ultrasoft PP ?                                      
   IUNSCR =        0    unscreen: 0-lin 1-nonlin 2-no                           
   RPACOR =    0.000    partial core radius                                     
   POMASS =    1.000; ZVAL   =    1.000    mass and valenz                      
   RCORE  =    1.100    outmost cutoff radius                                   
   RWIGS  =    0.700; RWIGS  =    0.370    wigner-seitz radius (au A)           
   ENMAX  =  250.000; ENMIN  =  200.000 eV                                      
   RCLOC  =    0.701    cutoff for local pot                                    
   LCOR   =        T    correct aug charges                                     
   LPAW   =        T    paw PP                                                  
   EAUG   =  400.000                                                            
   RMAX   =    1.123    core radius for proj-oper                               
   RAUG   =    1.200    factor for augmentation sphere                          
   RDEP   =    1.112    radius for radial grids                                 
   RDEPT  =    0.926    core radius for aug-charge                              
                                                                                
   Atomic configuration                                                         
    2 entries                                                                   
     n  l   j            E        occ.                                          
     1  0  0.50        -6.4927   1.0000                                         
     2  1  0.50        -3.4015   0.0000                                         
   Description                                                                  
     l       E           TYP  RCUT    TYP  RCUT                                 
     0     -6.4927494     23  1.100                                             
     0      6.8029130     23  1.100                                             
     1     -4.0817478     23  1.100                                             
  local pseudopotential read in
  atomic valenz-charges read in
  non local Contribution for L=           0  read in
    real space projection operators read in
  non local Contribution for L=           0  read in
    real space projection operators read in
  non local Contribution for L=           1  read in
    real space projection operators read in
    PAW grid and wavefunctions read in
 
   number of l-projection  operators is LMAX  =           3
   number of lm-projection operators is LMMAX =           5
 
 POTCAR:    PAW_PBE O 08Apr2002                   
   VRHFIN =O: s2p4                                                              
   LEXCH  = PE                                                                  
   EATOM  =   432.3788 eV,   31.7789 Ry                                         
                                                                                
   TITEL  = PAW_PBE O 08Apr2002                                                 
   LULTRA =        F    use ultrasoft PP ?                                      
   IUNSCR =        1    unscreen: 0-lin 1-nonlin 2-no                           
   RPACOR =    1.200    partial core radius                                     
   POMASS =   16.000; ZVAL   =    6.000    mass and valenz                      
   RCORE  =    1.520    outmost cutoff radius                                   
   RWIGS  =    1.550; RWIGS  =    0.820    wigner-seitz radius (au A)           
   ENMAX  =  400.000; ENMIN  =  300.000 eV                                      
   ICORE  =        2    local potential                                         
   LCOR   =        T    correct aug charges                                     
   LPAW   =        T    paw PP                                                  
   EAUG   =  605.392                                                            
   DEXC   =    0.000                                                            
   RMAX   =    1.553    core radius for proj-oper                               
   RAUG   =    1.300    factor for augmentation sphere                          
   RDEP   =    1.550    radius for radial grids                                 
   RDEPT  =    1.329    core radius for aug-charge                              
                                                                                
   Atomic configuration                                                         
    4 entries                                                                   
     n  l   j            E        occ.                                          
     1  0  0.50      -514.6923   2.0000                                         
     2  0  0.50       -23.9615   2.0000                                         
     2  1  0.50        -9.0305   4.0000                                         
     3  2  1.50        -9.5241   0.0000                                         
   Description                                                                  
     l       E           TYP  RCUT    TYP  RCUT                                 
     0    -23.9615318     23  1.200                                             
     0     -9.5240782     23  1.200                                             
     1     -9.0304911     23  1.520                                             
     1      8.1634956     23  1.520                                             
     2     -9.5240782      7  1.500                                             
  local pseudopotential read in
  partial core-charges read in
  partial kinetic energy density read in
  kinetic energy density of atom read in
  atomic valenz-charges read in
  non local Contribution for L=           0  read in
    real space projection operators read in
  non local Contribution for L=           0  read in
    real space projection operators read in
  non local Contribution for L=           1  read in
    real space projection operators read in
  non local Contribution for L=           1  read in
    real space projection operators read in
    PAW grid and wavefunctions read in
 
   number of l-projection  operators is LMAX  =           4
   number of lm-projection operators is LMMAX =           8
 
 POTCAR:    PAW_PBE P 06Sep2000                   
   VRHFIN =P : s2p3                                                             
   LEXCH  = PE                                                                  
   EATOM  =   176.0430 eV,   12.9388 Ry                                         
                                                                                
   TITEL  = PAW_PBE P 06Sep2000                                                 
   LULTRA =        F    use ultrasoft PP ?                                      
   IUNSCR =        1    unscreen: 0-lin 1-nonlin 2-no                           
   RPACOR =    1.500    partial core radius                                     
   POMASS =   30.974; ZVAL   =    5.000    mass and valenz                      
   RCORE  =    1.900    outmost cutoff radius                                   
   RWIGS  =    2.330; RWIGS  =    1.233    wigner-seitz radius (au A)           
   ENMAX  =  255.040; ENMIN  =  191.280 eV                                      
   ICORE  =        2    local potential                                         
   LCOR   =        T    correct aug charges                                     
   LPAW   =        T    paw PP                                                  
   EAUG   =  342.924                                                            
   DEXC   =    0.000                                                            
   RMAX   =    1.935    core radius for proj-oper                               
   RAUG   =    1.300    factor for augmentation sphere                          
   RDEP   =    1.931    radius for radial grids                                 
   RDEPT  =    1.794    core radius for aug-charge                              
                                                                                
   Atomic configuration                                                         
    6 entries                                                                   
     n  l   j            E        occ.                                          
     1  0  0.50     -2084.0982   2.0000                                         
     2  0  0.50      -173.9859   2.0000                                         
     2  1  1.50      -124.4865   6.0000                                         
     3  0  0.50       -13.9692   2.0000                                         
     3  1  0.50        -5.5067   3.0000                                         
     3  2  1.50        -5.4423   0.0000                                         
   Description                                                                  
     l       E           TYP  RCUT    TYP  RCUT                                 
     0    -13.9691527     23  1.900                                             
     0    -11.7794650     23  1.900                                             
     1     -5.5066937     23  1.900                                             
     1     -0.2556953     23  1.900                                             
     2     -5.4423304     23  1.900                                             
  local pseudopotential read in
  partial core-charges read in
  partial kinetic energy density read in
  atomic valenz-charges read in
  non local Contribution for L=           0  read in
    real space projection operators read in
  non local Contribution for L=           0  read in
    real space projection operators read in
  non local Contribution for L=           1  read in
    real space projection operators read in
  non local Contribution for L=           1  read in
    real space projection operators read in
    PAW grid and wavefunctions read in
 
   number of l-projection  operators is LMAX  =           4
   number of lm-projection operators is LMMAX =           8
 

 ----------------------------------------------------------------------------- 
|                                                                             |
|  ADVICE TO THIS USER RUNNING 'VASP/VAMP'   (HEAR YOUR MASTER'S VOICE ...):  |
|                                                                             |
|      You have a (more or less) 'large supercell' and for larger cells       |
|      it might be more efficient to use real space projection opertators     |
|      So try LREAL= Auto  in the INCAR   file.                               |
|      Mind: At the moment your POTCAR file does not contain real space       |
|       projectors, and has to be modified,  BUT if you                       |
|      want to do an extremely  accurate calculation you might also keep the  |
|      reciprocal projection scheme          (i.e. LREAL=.FALSE.)             |
|                                                                             |
 ----------------------------------------------------------------------------- 

  PAW_PBE C 08Apr2002                   :
 energy of atom  1       EATOM= -147.1560
 kinetic energy error for atom=    0.0076 (will be added to EATOM!!)
  PAW_PBE H 15Jun2001                   :
 energy of atom  2       EATOM=  -12.4884
 kinetic energy error for atom=    0.0020 (will be added to EATOM!!)
  PAW_PBE O 08Apr2002                   :
 energy of atom  3       EATOM= -432.3788
 kinetic energy error for atom=    0.0224 (will be added to EATOM!!)
  PAW_PBE P 06Sep2000                   :
 energy of atom  4       EATOM= -176.0430
 kinetic energy error for atom=    0.0013 (will be added to EATOM!!)
 
 
 POSCAR: Molecule_POSCAR_02                      
  positions in cartesian coordinates
  No initial velocities read in
 exchange correlation table for  LEXCH =        8
   RHO(1)=    0.500       N(1)  =     2000
   RHO(2)=  100.500       N(2)  =     4000

 VTST: version 3.2, (02/03/18)

 CHAIN: initializing optimizer
 
 OPT: Using VASP Dynamics algorithm
 CHAIN: Read ICHAIN            0
 
 POSCAR: Molecule_POSCAR_02                      
  positions in cartesian coordinates
  No initial velocities read in
 


--------------------------------------------------------------------------------------------------------


 ion  position               nearest neighbor table
   1  0.253  0.573  0.458-  51 1.09  50 1.11  52 1.13   2 1.51
   2  0.279  0.581  0.500-   5 1.49   3 1.50   1 1.51   4 1.53
   3  0.250  0.570  0.539-  55 1.11  53 1.11  54 1.13   2 1.50
   4  0.290  0.631  0.501-  58 1.10  56 1.11  57 1.11   2 1.53
   5  0.322  0.555  0.500-  49 1.34   6 1.36   2 1.49
   6  0.338  0.541  0.460-  59 1.09   5 1.36   7 1.43
   7  0.378  0.517  0.457-  12 1.39   6 1.43   8 1.47
   8  0.392  0.502  0.412-   7 1.47  11 1.49  10 1.52   9 1.58
   9  0.356  0.523  0.379-  60 1.07  61 1.09  62 1.14   8 1.58
  10  0.384  0.453  0.403-  63 1.09  64 1.11  65 1.14   8 1.52
  11  0.433  0.522  0.394-  68 1.09  66 1.09  67 1.16   8 1.49
  12  0.402  0.506  0.496-   7 1.39  44 1.40  13 1.45
  13  0.446  0.486  0.493-  12 1.45 124 1.65 123 1.86
  14  0.546  0.492  0.497-  33 1.32  15 1.47 123 1.92
  15  0.590  0.514  0.501-  16 1.36  28 1.41  14 1.47
  16  0.612  0.527  0.463-  15 1.36  21 1.42  17 1.46
  17  0.596  0.524  0.417-  16 1.46  19 1.51  20 1.51  18 1.56
  18  0.632  0.545  0.386-  69 1.08  71 1.08  70 1.14  17 1.56
  19  0.556  0.552  0.407-  72 1.09  73 1.11  74 1.12  17 1.51
  20  0.593  0.478  0.397-  76 1.10  77 1.10  75 1.11  17 1.51
  21  0.655  0.545  0.469-  78 1.09  22 1.35  16 1.42
  22  0.674  0.551  0.509-  21 1.35  27 1.37  23 1.50
  23  0.719  0.571  0.513-  26 1.50  24 1.50  22 1.50  25 1.51
  24  0.721  0.615  0.488-  81 1.10  80 1.12  79 1.12  23 1.50
  25  0.731  0.581  0.561-  82 1.10  84 1.12  83 1.12  23 1.51
  26  0.752  0.537  0.496-  85 1.11  87 1.11  86 1.13  23 1.50
  27  0.650  0.538  0.546-  88 1.08  22 1.37  28 1.41
  28  0.608  0.519  0.544-  15 1.41  27 1.41  29 1.43
  29  0.587  0.512  0.586-  28 1.43  30 1.47  31 1.52  32 1.58
  30  0.565  0.470  0.601-  91 1.07  90 1.11  89 1.14  29 1.47
  31  0.558  0.552  0.600-  94 1.08  93 1.11  92 1.15  29 1.52
  32  0.625  0.515  0.622-  96 1.07  97 1.09  95 1.12  29 1.58
  33  0.535  0.450  0.488-  14 1.32  34 1.46 124 1.78
  34  0.567  0.414  0.483-  35 1.36  39 1.38  33 1.46
  35  0.602  0.405  0.509-  98 1.05  34 1.36  36 1.40
  36  0.631  0.369  0.500-  99 1.10  37 1.36  35 1.40
  37  0.624  0.341  0.465- 100 1.08  36 1.36  38 1.36
  38  0.589  0.349  0.437- 101 1.08  37 1.36  39 1.40
  39  0.561  0.385  0.447- 102 1.08  34 1.38  38 1.40
  40  0.458  0.390  0.509-  41 1.50  43 1.53  42 1.56 124 1.81
  41  0.482  0.380  0.552- 105 1.08 104 1.13 103 1.14  40 1.50
  42  0.468  0.349  0.480- 107 1.08 108 1.10 106 1.13  40 1.56
  43  0.408  0.389  0.514- 111 1.09 109 1.10 110 1.11  40 1.53
  44  0.385  0.520  0.537-  12 1.40  49 1.43  45 1.44
  45  0.403  0.507  0.580-  44 1.44  47 1.47  48 1.56  46 1.58
  46  0.375  0.533  0.616- 113 1.09 112 1.09 114 1.13  45 1.58
  47  0.449  0.515  0.594- 115 1.08 116 1.10 117 1.18  45 1.47
  48  0.390  0.459  0.594- 118 1.08 119 1.09 120 1.11  45 1.56
  49  0.344  0.545  0.537- 121 1.08   5 1.34  44 1.43
  50  0.218  0.582  0.465-   1 1.11
  51  0.264  0.592  0.430-   1 1.09
  52  0.252  0.536  0.452-   1 1.13
  53  0.255  0.535  0.551-   3 1.11
  54  0.259  0.592  0.568-   3 1.13
  55  0.214  0.573  0.533-   3 1.11
  56  0.318  0.638  0.525-   4 1.11
  57  0.301  0.641  0.467-   4 1.11
  58  0.259  0.649  0.509-   4 1.10
  59  0.319  0.550  0.431-   6 1.09
  60  0.357  0.559  0.380-   9 1.07
  61  0.325  0.505  0.385-   9 1.09
  62  0.370  0.512  0.346-   9 1.14
  63  0.385  0.431  0.432-  10 1.09
  64  0.405  0.443  0.374-  10 1.11
  65  0.349  0.446  0.389-  10 1.14
  66  0.457  0.496  0.384-  11 1.09
  67  0.427  0.540  0.360-  11 1.16
  68  0.449  0.548  0.414-  11 1.09
  69  0.636  0.581  0.391-  18 1.08
  70  0.615  0.542  0.352-  18 1.14
  71  0.661  0.524  0.383-  18 1.08
  72  0.552  0.579  0.432-  19 1.09
  73  0.526  0.531  0.402-  19 1.11
  74  0.559  0.569  0.374-  19 1.12
  75  0.604  0.476  0.362-  20 1.11
  76  0.617  0.457  0.416-  20 1.10
  77  0.558  0.467  0.397-  20 1.10
  78  0.674  0.556  0.440-  21 1.09
  79  0.752  0.615  0.467-  24 1.12
  80  0.692  0.619  0.464-  24 1.12
  81  0.720  0.644  0.510-  24 1.10
  82  0.742  0.552  0.580-  25 1.10
  83  0.761  0.604  0.560-  25 1.12
  84  0.704  0.601  0.577-  25 1.12
  85  0.751  0.534  0.459-  26 1.11
  86  0.739  0.504  0.509-  26 1.13
  87  0.786  0.543  0.507-  26 1.11
  88  0.668  0.544  0.577-  27 1.08
  89  0.543  0.480  0.630-  30 1.14
  90  0.588  0.445  0.616-  30 1.11
  91  0.543  0.457  0.576-  30 1.07
  92  0.580  0.577  0.619-  31 1.15
  93  0.535  0.540  0.626-  31 1.11
  94  0.545  0.571  0.573-  31 1.08
  95  0.612  0.501  0.655-  32 1.12
  96  0.633  0.549  0.629-  32 1.07
  97  0.652  0.493  0.612-  32 1.09
  98  0.609  0.425  0.537-  35 1.05
  99  0.659  0.362  0.522-  36 1.10
 100  0.645  0.313  0.457-  37 1.08
 101  0.583  0.328  0.409-  38 1.08
 102  0.534  0.389  0.422-  39 1.08
 103  0.459  0.355  0.570-  41 1.14
 104  0.513  0.359  0.546-  41 1.13
 105  0.487  0.407  0.575-  41 1.08
 106  0.440  0.324  0.484-  42 1.13
 107  0.498  0.331  0.489-  42 1.08
 108  0.467  0.358  0.445-  42 1.10
 109  0.398  0.375  0.547-  43 1.10
 110  0.391  0.367  0.489-  43 1.11
 111  0.396  0.423  0.508-  43 1.09
 112  0.342  0.519  0.618-  46 1.09
 113  0.378  0.569  0.610-  46 1.09
 114  0.394  0.529  0.649-  46 1.13
 115  0.461  0.549  0.591-  47 1.08
 116  0.472  0.488  0.588-  47 1.10
 117  0.448  0.512  0.633-  47 1.18
 118  0.419  0.438  0.595-  48 1.08
 119  0.362  0.450  0.573-  48 1.09
 120  0.377  0.460  0.629-  48 1.11
 121  0.331  0.556  0.569-  49 1.08
 122  0.475  0.427  0.432- 124 1.59
 123  0.492  0.526  0.501-  13 1.86  14 1.92 124 2.65
 124  0.477  0.441  0.483- 122 1.59  13 1.65  33 1.78  40 1.81 123 2.65
 
  LATTYP: Found a simple cubic cell.
 ALAT       =    30.0000000000
  
  Lattice vectors:
  
 A1 = (  30.0000000000,   0.0000000000,   0.0000000000)
 A2 = (   0.0000000000,  30.0000000000,   0.0000000000)
 A3 = (   0.0000000000,   0.0000000000,  30.0000000000)


Analysis of symmetry for initial positions (statically):
=====================================================================
 Subroutine PRICEL returns:
 Original cell was already a primitive cell.
 

 Routine SETGRP: Setting up the symmetry group for a 
 simple cubic supercell.


 Subroutine GETGRP returns: Found  1 space group operations
 (whereof  1 operations were pure point group operations)
 out of a pool of 48 trial point group operations.


The static configuration has the point symmetry C_1 .


Analysis of symmetry for dynamics (positions and initial velocities):
=====================================================================
 Subroutine PRICEL returns:
 Original cell was already a primitive cell.
 

 Routine SETGRP: Setting up the symmetry group for a 
 simple cubic supercell.


 Subroutine GETGRP returns: Found  1 space group operations
 (whereof  1 operations were pure point group operations)
 out of a pool of 48 trial point group operations.


The dynamic configuration has the point symmetry C_1 .
 
 
 KPOINTS: Gamma-point only                        

Automatic generation of k-mesh.
Space group operators:
 irot       det(A)        alpha          n_x          n_y          n_z        tau_x        tau_y        tau_z
    1     1.000000     0.000000     1.000000     0.000000     0.000000     0.000000     0.000000     0.000000
 
 Subroutine IBZKPT returns following result:
 ===========================================
 
 Found      1 irreducible k-points:
 
 Following reciprocal coordinates:
            Coordinates               Weight
  0.000000  0.000000  0.000000      1.000000
 
 Following cartesian coordinates:
            Coordinates               Weight
  0.000000  0.000000  0.000000      1.000000
 
 
 Subroutine IBZKPT_HF returns following result:
 ==============================================
 
 Found      1 k-points in 1st BZ
 the following      1 k-points will be used (e.g. in the exchange kernel)
 Following reciprocal coordinates:   # in IRBZ
  0.000000  0.000000  0.000000    1.00000000   1 t-inv F


--------------------------------------------------------------------------------------------------------




 Dimension of arrays:
   k-points           NKPTS =      1   k-points in BZ     NKDIM =      1   number of bands    NBANDS=    208
   number of dos      NEDOS =    301   number of ions     NIONS =    124
   non local maximal  LDIM  =      4   non local SUM 2l+1 LMDIM =      8
   total plane-waves  NPLWV = ******
   max r-space proj   IRMAX =      1   max aug-charges    IRDMAX=   5543
   dimension x,y,z NGX =   168 NGY =  168 NGZ =  168
   dimension x,y,z NGXF=   336 NGYF=  336 NGZF=  336
   support grid    NGXF=   336 NGYF=  336 NGZF=  336
   ions per type =              49  72   1   2
 NGX,Y,Z   is equivalent  to a cutoff of   9.31,  9.31,  9.31 a.u.
 NGXF,Y,Z  is equivalent  to a cutoff of  18.62, 18.62, 18.62 a.u.


 I would recommend the setting:
   dimension x,y,z NGX =   164 NGY =  164 NGZ =  164
 SYSTEM =  Step2_PBE0_Final_Calc                   
 POSCAR =  Molecule_POSCAR_02                      

 Startparameter for this run:
   NWRITE =      2    write-flag & timer
   PREC   = normal    normal or accurate (medium, high low for compatibility)
   ISTART =      1    job   : 0-new  1-cont  2-samecut
   ICHARG =      0    charge: 1-file 2-atom 10-const
   ISPIN  =      1    spin polarized calculation?
   LNONCOLLINEAR =      F non collinear calculations
   LSORBIT =      F    spin-orbit coupling
   INIWAV =      1    electr: 0-lowe 1-rand  2-diag
   LASPH  =      T    aspherical Exc in radial PAW
   METAGGA=      F    non-selfconsistent MetaGGA calc.

 Electronic Relaxation 1
   ENCUT  =  500.0 eV  36.75 Ry    6.06 a.u.  54.70 54.70 54.70*2*pi/ulx,y,z
   ENINI  =  500.0     initial cutoff
   ENAUG  =  644.9 eV  augmentation charge cutoff
   NELM   =    100;   NELMIN=  2; NELMDL=  0     # of ELM steps 
   EDIFF  = 0.1E-05   stopping-criterion for ELM
   LREAL  =      F    real-space projection
   NLSPLINE    = F    spline interpolate recip. space projectors
   LCOMPAT=      F    compatible to vasp.4.4
   GGA_COMPAT  = T    GGA compatible to vasp.4.4-vasp.4.6
   LMAXPAW     = -100 max onsite density
   LMAXMIX     =    2 max onsite mixed and CHGCAR
   VOSKOWN=      0    Vosko Wilk Nusair interpolation
   ROPT   =    0.00000   0.00000   0.00000   0.00000
 Ionic relaxation
   EDIFFG = 0.1E-04   stopping-criterion for IOM
   NSW    =      0    number of steps for IOM
   NBLOCK =      1;   KBLOCK =      1    inner block; outer block 
   IBRION =     -1    ionic relax: 0-MD 1-quasi-New 2-CG
   NFREE  =      0    steps in history (QN), initial steepest desc. (CG)
   ISIF   =      0    stress and relaxation
   IWAVPR =     10    prediction:  0-non 1-charg 2-wave 3-comb
   ISYM   =      3    0-nonsym 1-usesym 2-fastsym
   LCORR  =      T    Harris-Foulkes like correction to forces

   POTIM  = 0.5000    time-step for ionic-motion
   TEIN   =    0.0    initial temperature
   TEBEG  =    0.0;   TEEND  =   0.0 temperature during run
   SMASS  =  -3.00    Nose mass-parameter (am)
   estimated Nose-frequenzy (Omega)   =  0.10E-29 period in steps =****** mass=  -0.206E-25a.u.
   SCALEE = 1.0000    scale energy and forces
   NPACO  =    256;   APACO  = 16.0  distance and # of slots for P.C.
   PSTRESS=    0.0 pullay stress

  Mass of Ions in am
   POMASS =  12.01  1.00 16.00 30.97
  Ionic Valenz
   ZVAL   =   4.00  1.00  6.00  5.00
  Atomic Wigner-Seitz radii
   RWIGS  =  -1.00 -1.00 -1.00 -1.00
  virtual crystal weights 
   VCA    =   1.00  1.00  1.00  1.00
   NELECT =     284.0000    total number of electrons
   NUPDOWN=      -1.0000    fix difference up-down

 DOS related values:
   EMIN   =  10.00;   EMAX   =-10.00  energy-range for DOS
   EFERMI =   0.00
   ISMEAR =     0;   SIGMA  =   0.05  broadening in eV -4-tet -1-fermi 0-gaus

 Electronic relaxation 2 (details)
   IALGO  =     58    algorithm
   LDIAG  =      T    sub-space diagonalisation (order eigenvalues)
   LSUBROT=      F    optimize rotation matrix (better conditioning)
   TURBO    =      0    0=normal 1=particle mesh
   IRESTART =      0    0=no restart 2=restart with 2 vectors
   NREBOOT  =      0    no. of reboots
   NMIN     =      0    reboot dimension
   EREF     =   0.00    reference energy to select bands
   IMIX   =      4    mixing-type and parameters
     AMIX     =   0.40;   BMIX     =  1.00
     AMIX_MAG =   1.60;   BMIX_MAG =  1.00
     AMIN     =   0.10
     WC   =   100.;   INIMIX=   1;  MIXPRE=   1;  MAXMIX= -45

 Intra band minimization:
   WEIMIN = 0.0000     energy-eigenvalue tresh-hold
   EBREAK =  0.12E-08  absolut break condition
   DEPER  =   0.30     relativ break condition  

   TIME   =   0.40     timestep for ELM

  volume/ion in A,a.u.               =     217.74      1469.40
  Fermi-wavevector in a.u.,A,eV,Ry     =   0.358696  0.677837  1.750563  0.128663
  Thomas-Fermi vector in A             =   1.277077
 
 Write flags
   LWAVE  =      F    write WAVECAR
   LCHARG =      F    write CHGCAR
   LVTOT  =      F    write LOCPOT, total local potential
   LVHAR  =      F    write LOCPOT, Hartree potential only
   LELF   =      F    write electronic localiz. function (ELF)
   LORBIT =      0    0 simple, 1 ext, 2 COOP (PROOUT)


 Dipole corrections
   LMONO  =      F    monopole corrections only (constant potential shift)
   LDIPOL =      F    correct potential (dipole corrections)
   IDIPOL =      0    1-x, 2-y, 3-z, 4-all directions 
   EPSILON=  1.0000000 bulk dielectric constant

 Exchange correlation treatment:
   GGA     =    PE    GGA type
   LEXCH   =     8    internal setting for exchange type
   VOSKOWN=      0    Vosko Wilk Nusair interpolation
   EXXOEP  =     0    0=HF, 1=EXX-LHF (local Hartree Fock) 2=EXX OEP
   LHFCALC =     T    Hartree Fock is set to
   LSYMGRAD=     F    symmetrize gradient (conserves proper symmetry)
   PRECFOCK=fast      Normal, Fast or Accurate (Low or Medium for compatibility)
   LRHFCALC=     F    long range Hartree Fock
   LRSCOR  =     F    long range correlation only (use DFT for short range part)
   LTHOMAS =     F    Thomas Fermi screening in HF
   LMODELHF=     F    short range full HF, long range fraction AEXX
   ENCUT4O =  -1.0   cutoff for four orbital integrals eV
   LMAXFOCK=     4    L truncation for augmentation on plane wave grid
   LMAXFOCKAE=  -1    L truncation for all-electron charge restoration on plane wave grid
   NMAXFOCKAE=   1    number of basis functions for all-electron charge restoration
   LFOCKAEDFT=     F  apply the AE augmentation even for DFT
   NKREDX  =     1    reduce k-point grid by
   NKREDY  =     1    reduce k-point grid by
   NKREDZ  =     1    reduce k-point grid by
   SHIFTRED=     F    shift reduced grid of Gamma
   HFKIDENT=     F    idential grid for each k-point
   ODDONLY =     F    use only odd q-grid points
   EVENONLY=     F    use only even q-grid points
   HFALPHA =   -1.0000 decay constant for conv. correction
   MCALPHA =    0.0000 extent of test-charge in conv. correction in multipole expansion
   AEXX    =    0.2500 exact exchange contribution
   HFSCREEN=    0.0000 screening length (either q_TF or 0.3 A-1)
   HFSCREENC=   0.0000 screening length for correlation (either q_TF or 0.3 A-1)
   HFRCUT  =    0.0000 spherical cutoff for potential kernel
   ALDAX   =    0.7500 LDA exchange part
   AGGAX   =    0.7500 GGA exchange part
   ALDAC   =    1.0000 LDA correlation
   AGGAC   =    1.0000 GGA correlation
   NBANDSGWLOW=     1    first orbital included in HF term
   ENCUTFOCK=  -1.0 apply spherical cutoff to Coloumb kernel
 Linear response parameters
   LEPSILON=     F    determine dielectric tensor
   LRPA    =     F    only Hartree local field effects (RPA)
   LNABLA  =     F    use nabla operator in PAW spheres
   LVEL    =     F    velocity operator in full k-point grid
   LINTERFAST=   F  fast interpolation
   KINTER  =     0    interpolate to denser k-point grid
   CSHIFT  =0.1000    complex shift for real part using Kramers Kronig
   OMEGAMAX=  -1.0    maximum frequency
   DEG_THRESHOLD= 0.2000000E-02 threshold for treating states as degnerate
   RTIME   =    0.100 relaxation time in fs

 Orbital magnetization related:
   ORBITALMAG=     F  switch on orbital magnetization
   LCHIMAG   =     F  perturbation theory with respect to B field
   DQ        =  0.001000  dq finite difference perturbation B field



--------------------------------------------------------------------------------------------------------


 Static calculation
 charge density and potential will be updated during run
 non-spin polarized calculation
 Conjugate gradient for all bands (Freysoldt, et al. PRB 79, 241103 (2009))
 preconditioned conjugated gradient                                        
 perform sub-space diagonalisation
    before iterative eigenvector-optimisation
 modified Broyden-mixing scheme, WC =      100.0
 initial mixing is a Kerker type mixing with AMIX =  0.4000 and BMIX =      1.0000
 Hartree-type preconditioning will be used
 using additional bands           66
 reciprocal scheme for non local part
 use partial core corrections
 no Harris-corrections to forces 
 use gradient corrections 
 use of overlap-Matrix (Vanderbilt PP)
 Gauss-broadening in eV      SIGMA  =   0.05


--------------------------------------------------------------------------------------------------------


  energy-cutoff  :      500.00
  volume of cell :    27000.00
      direct lattice vectors                 reciprocal lattice vectors
    30.000000000  0.000000000  0.000000000     0.033333333  0.000000000  0.000000000
     0.000000000 30.000000000  0.000000000     0.000000000  0.033333333  0.000000000
     0.000000000  0.000000000 30.000000000     0.000000000  0.000000000  0.033333333

  length of vectors
    30.000000000 30.000000000 30.000000000     0.033333333  0.033333333  0.033333333


 
 old parameters found on file WAVECAR:
  energy-cutoff  :      500.00
  volume of cell :    27000.00
      direct lattice vectors                 reciprocal lattice vectors
    30.000000000  0.000000000  0.000000000     0.033333333  0.000000000  0.000000000
     0.000000000 30.000000000  0.000000000     0.000000000  0.033333333  0.000000000
     0.000000000  0.000000000 30.000000000     0.000000000  0.000000000  0.033333333

  length of vectors

 
 k-points in units of 2pi/SCALE and weight: Gamma-point only                        
   0.00000000  0.00000000  0.00000000       1.000
 
 k-points in reciprocal lattice and weights: Gamma-point only                        
   0.00000000  0.00000000  0.00000000       1.000
 
 position of ions in fractional coordinates (direct lattice) 
   0.25262110  0.57278633  0.45826987
   0.27928020  0.58114453  0.50015850
   0.25044077  0.56985193  0.53944897
   0.29040973  0.63093917  0.50095183
   0.32174953  0.55521193  0.50045633
   0.33805187  0.54145907  0.46048720
   0.37840170  0.51658707  0.45734300
   0.39153943  0.50228043  0.41247683
   0.35592670  0.52291133  0.37936260
   0.38372287  0.45322150  0.40279017
   0.43299983  0.52165343  0.39358640
   0.40202297  0.50593930  0.49575950
   0.44580690  0.48566383  0.49267353
   0.54589083  0.49229460  0.49652590
   0.58963993  0.51358293  0.50110410
   0.61167877  0.52651143  0.46347217
   0.59615547  0.52433710  0.41740890
   0.63194300  0.54502587  0.38575237
   0.55552717  0.55213720  0.40671797
   0.59303040  0.47807213  0.39746257
   0.65455690  0.54546717  0.46889370
   0.67376017  0.55105983  0.50921067
   0.71935827  0.57147527  0.51300133
   0.72063433  0.61469230  0.48772833
   0.73141947  0.58139457  0.56067923
   0.75154503  0.53713417  0.49596007
   0.65044700  0.53777123  0.54620550
   0.60751227  0.51855560  0.54414267
   0.58664163  0.51183363  0.58629187
   0.56528520  0.47009473  0.60089917
   0.55836997  0.55162230  0.60004907
   0.62480627  0.51473417  0.62249847
   0.53497210  0.45037263  0.48829827
   0.56652500  0.41361193  0.48255580
   0.60215050  0.40461090  0.50914177
   0.63059580  0.36867390  0.50010930
   0.62407867  0.34121240  0.46463213
   0.58865517  0.34939007  0.43730840
   0.56050113  0.38540943  0.44667310
   0.45833143  0.39014543  0.50939223
   0.48176033  0.37964097  0.55242417
   0.46784673  0.34865637  0.47975957
   0.40756310  0.38892380  0.51413710
   0.38509233  0.51994120  0.53707717
   0.40296810  0.50743577  0.58000903
   0.37520160  0.53346257  0.61645260
   0.44908663  0.51525980  0.59409427
   0.38971020  0.45918803  0.59397807
   0.34449563  0.54478237  0.53744063
   0.21752430  0.58217530  0.46458470
   0.26399323  0.59235780  0.42982860
   0.25168387  0.53574173  0.45175747
   0.25500683  0.53485763  0.55077933
   0.25913823  0.59234420  0.56832067
   0.21422297  0.57342157  0.53264093
   0.31782180  0.63816560  0.52481420
   0.30060457  0.64063727  0.46659030
   0.25947183  0.64887857  0.50928743
   0.31937607  0.54992367  0.43053767
   0.35684227  0.55856027  0.37950517
   0.32467450  0.50533567  0.38492640
   0.36968087  0.51224920  0.34564540
   0.38543380  0.43139040  0.43198283
   0.40541447  0.44299013  0.37444000
   0.34902590  0.44647013  0.38923017
   0.45703913  0.49593420  0.38395647
   0.42708743  0.53997633  0.36020693
   0.44874713  0.54759690  0.41373763
   0.63580193  0.58051317  0.39094640
   0.61493300  0.54219520  0.35206583
   0.66136173  0.52424617  0.38300277
   0.55245087  0.57856410  0.43165857
   0.52557380  0.53115660  0.40227623
   0.55867050  0.56932047  0.37370573
   0.60358523  0.47593283  0.36199983
   0.61695727  0.45727303  0.41589567
   0.55809990  0.46679217  0.39748200
   0.67415287  0.55635997  0.44028140
   0.75155633  0.61463873  0.46684783
   0.69208183  0.61891767  0.46412440
   0.72044367  0.64379657  0.51024510
   0.74215847  0.55201280  0.58000520
   0.76103200  0.60426810  0.55978733
   0.70437617  0.60110260  0.57732273
   0.75120187  0.53429573  0.45920717
   0.73915023  0.50384130  0.50856250
   0.78635257  0.54283627  0.50670050
   0.66838817  0.54354320  0.57697007
   0.54317523  0.47958057  0.63015840
   0.58811760  0.44497373  0.61598477
   0.54291723  0.45732340  0.57632443
   0.57962470  0.57709993  0.61894870
   0.53495670  0.53988597  0.62611447
   0.54462210  0.57100637  0.57305430
   0.61188443  0.50068640  0.65451007
   0.63348950  0.54879827  0.62944483
   0.65199833  0.49270653  0.61247867
   0.60941343  0.42459983  0.53707040
   0.65911837  0.36191007  0.52198807
   0.64537680  0.31316980  0.45675277
   0.58299480  0.32787307  0.40901540
   0.53436847  0.38923443  0.42238680
   0.45927430  0.35459723  0.56982467
   0.51265330  0.35916853  0.54613277
   0.48674260  0.40680133  0.57526520
   0.44026043  0.32353110  0.48406907
   0.49798513  0.33143973  0.48932317
   0.46740153  0.35814793  0.44450240
   0.39817703  0.37512730  0.54661433
   0.39130683  0.36732807  0.48880237
   0.39625763  0.42268647  0.50754913
   0.34184940  0.51898477  0.61846333
   0.37788420  0.56898867  0.60966733
   0.39352657  0.52859340  0.64899490
   0.46117623  0.54917927  0.59112807
   0.47241237  0.48756300  0.58781337
   0.44766143  0.51232590  0.63342673
   0.41887467  0.43792307  0.59452187
   0.36161693  0.44972557  0.57321043
   0.37703167  0.45979277  0.62886427
   0.33065417  0.55618217  0.56865280
   0.47470227  0.42698457  0.43174097
   0.49195960  0.52617770  0.50135817
   0.47670600  0.44112630  0.48273080
 
 position of ions in cartesian coordinates  (Angst):
   7.57863300 17.18359000 13.74809600
   8.37840600 17.43433600 15.00475500
   7.51322300 17.09555800 16.18346900
   8.71229200 18.92817500 15.02855500
   9.65248600 16.65635800 15.01369000
  10.14155600 16.24377200 13.81461600
  11.35205100 15.49761200 13.72029000
  11.74618300 15.06841300 12.37430500
  10.67780100 15.68734000 11.38087800
  11.51168600 13.59664500 12.08370500
  12.98999500 15.64960300 11.80759200
  12.06068900 15.17817900 14.87278500
  13.37420700 14.56991500 14.78020600
  16.37672500 14.76883800 14.89577700
  17.68919800 15.40748800 15.03312300
  18.35036300 15.79534300 13.90416500
  17.88466400 15.73011300 12.52226700
  18.95829000 16.35077600 11.57257100
  16.66581500 16.56411600 12.20153900
  17.79091200 14.34216400 11.92387700
  19.63670700 16.36401500 14.06681100
  20.21280500 16.53179500 15.27632000
  21.58074800 17.14425800 15.39004000
  21.61903000 18.44076900 14.63185000
  21.94258400 17.44183700 16.82037700
  22.54635100 16.11402500 14.87880200
  19.51341000 16.13313700 16.38616500
  18.22536800 15.55666800 16.32428000
  17.59924900 15.35500900 17.58875600
  16.95855600 14.10284200 18.02697500
  16.75109900 16.54866900 18.00147200
  18.74418800 15.44202500 18.67495400
  16.04916300 13.51117900 14.64894800
  16.99575000 12.40835800 14.47667400
  18.06451500 12.13832700 15.27425300
  18.91787400 11.06021700 15.00327900
  18.72236000 10.23637200 13.93896400
  17.65965500 10.48170200 13.11925200
  16.81503400 11.56228300 13.40019300
  13.74994300 11.70436300 15.28176700
  14.45281000 11.38922900 16.57272500
  14.03540200 10.45969100 14.39278700
  12.22689300 11.66771400 15.42411300
  11.55277000 15.59823600 16.11231500
  12.08904300 15.22307300 17.40027100
  11.25604800 16.00387700 18.49357800
  13.47259900 15.45779400 17.82282800
  11.69130600 13.77564100 17.81934200
  10.33486900 16.34347100 16.12321900
   6.52572900 17.46525900 13.93754100
   7.91979700 17.77073400 12.89485800
   7.55051600 16.07225200 13.55272400
   7.65020500 16.04572900 16.52338000
   7.77414700 17.77032600 17.04962000
   6.42668900 17.20264700 15.97922800
   9.53465400 19.14496800 15.74442600
   9.01813700 19.21911800 13.99770900
   7.78415500 19.46635700 15.27862300
   9.58128200 16.49771000 12.91613000
  10.70526800 16.75680800 11.38515500
   9.74023500 15.16007000 11.54779200
  11.09042600 15.36747600 10.36936200
  11.56301400 12.94171200 12.95948500
  12.16243400 13.28970400 11.23320000
  10.47077700 13.39410400 11.67690500
  13.71117400 14.87802600 11.51869400
  12.81262300 16.19929000 10.80620800
  13.46241400 16.42790700 12.41212900
  19.07405800 17.41539500 11.72839200
  18.44799000 16.26585600 10.56197500
  19.84085200 15.72738500 11.49008300
  16.57352600 17.35692300 12.94975700
  15.76721400 15.93469800 12.06828700
  16.76011500 17.07961400 11.21117200
  18.10755700 14.27798500 10.85999500
  18.50871800 13.71819100 12.47687000
  16.74299700 14.00376500 11.92446000
  20.22458600 16.69079900 13.20844200
  22.54669000 18.43916200 14.00543500
  20.76245500 18.56753000 13.92373200
  21.61331000 19.31389700 15.30735300
  22.26475400 16.56038400 17.40015600
  22.83096000 18.12804300 16.79362000
  21.13128500 18.03307800 17.31968200
  22.53605600 16.02887200 13.77621500
  22.17450700 15.11523900 15.25687500
  23.59057700 16.28508800 15.20101500
  20.05164500 16.30629600 17.30910200
  16.29525700 14.38741700 18.90475200
  17.64352800 13.34921200 18.47954300
  16.28751700 13.71970200 17.28973300
  17.38874100 17.31299800 18.56846100
  16.04870100 16.19657900 18.78343400
  16.33866300 17.13019100 17.19162900
  18.35653300 15.02059200 19.63530200
  19.00468500 16.46394800 18.88334500
  19.55995000 14.78119600 18.37436000
  18.28240300 12.73799500 16.11211200
  19.77355100 10.85730200 15.65964200
  19.36130400  9.39509400 13.70258300
  17.48984400  9.83619200 12.27046200
  16.03105400 11.67703300 12.67160400
  13.77822900 10.63791700 17.09474000
  15.37959900 10.77505600 16.38398300
  14.60227800 12.20404000 17.25795600
  13.20781300  9.70593300 14.52207200
  14.93955400  9.94319200 14.67969500
  14.02204600 10.74443800 13.33507200
  11.94531100 11.25381900 16.39843000
  11.73920500 11.01984200 14.66407100
  11.88772900 12.68059400 15.22647400
  10.25548200 15.56954300 18.55390000
  11.33652600 17.06966000 18.29002000
  11.80579700 15.85780200 19.46984700
  13.83528700 16.47537800 17.73384200
  14.17237100 14.62689000 17.63440100
  13.42984300 15.36977700 19.00280200
  12.56624000 13.13769200 17.83565600
  10.84850800 13.49176700 17.19631300
  11.31095000 13.79378300 18.86592800
   9.91962500 16.68546500 17.05958400
  14.24106800 12.80953700 12.95222900
  14.75878800 15.78533100 15.04074500
  14.30118000 13.23378900 14.48192400
 


--------------------------------------------------------------------------------------------------------


 use seriel FFT for wavefunctions x direction half grid
 k-point  1 :   0.0000 0.0000 0.0000  plane waves:  342683

 maximum and minimum number of plane-waves per node :    342683   342683

 maximum number of plane-waves:    342683
 maximum index in each direction: 
   IXMAX=   54   IYMAX=   54   IZMAX=   54
   IXMIN=    0   IYMIN=  -54   IZMIN=  -54

 WARNING: aliasing errors must be expected set NGX to 218 to avoid them
 WARNING: aliasing errors must be expected set NGY to 218 to avoid them
 WARNING: aliasing errors must be expected set NGZ to 218 to avoid them
 aliasing errors are usually negligible using standard VASP settings
 and one can safely disregard these warnings

 serial   3D FFT for wavefunctions
 parallel 3D FFT for charge:
    minimum data exchange during FFTs selected (reduces bandwidth)


 FFT grid for exact exchange (Hartree Fock) 
  NGX =112; NGY =112; NGZ =112

 use seriel FFT for wavefunctions x direction half grid
 
 Radii for the augmentation spheres in the non-local exchange
 for species   1 augmentation radius   0.944 (default was   0.699)
       energy cutoff for augmentation   2000.0
 for species   2 augmentation radius   0.702 (default was   0.520)
       energy cutoff for augmentation   2000.0
 for species   3 augmentation radius   0.974 (default was   0.722)
       energy cutoff for augmentation   2000.0
 for species   4 augmentation radius   1.294 (default was   0.959)
       energy cutoff for augmentation   2000.0
 Maximum index for augmentation-charges in exchange          477
  SETUP_FOCK is finished

 total amount of memory used by VASP on root node  2870280. kBytes
========================================================================

   base      :      30000. kBytes
   nonl-proj :     767612. kBytes
   fftplans  :     338850. kBytes
   grid      :     876072. kBytes
   one-center:        190. kBytes
   HF        :         18. kBytes
   nonlr-proj:       1233. kBytes
   wavefun   :     856305. kBytes
 
     INWAV:  cpu time    1.8417: real time    6.6841
 Broyden mixing: mesh for mixing (old mesh)
   NGX =109   NGY =109   NGZ =109
  (NGX  =336   NGY  =336   NGZ  =336)
  gives a total of ****** points

 charge density for first step will be calculated from the start-wavefunctions


--------------------------------------------------------------------------------------------------------


 Maximum index for augmentation-charges         1310 (set IRDMAX)


--------------------------------------------------------------------------------------------------------


 initial charge from wavefunction
 FEWALD executed in parallel
    FEWALD:  cpu time    0.0099: real time    0.0099


----------------------------------------- Iteration    1(   1)  ---------------------------------------


    POTLOK:  cpu time    3.9849: real time    3.9991
    SETDIJ:  cpu time    0.8169: real time    0.8198
    TRIAL :  cpu time  518.7335: real time  520.6192
    CORREC:  cpu time  442.1973: real time  443.9567
    CHARGE:  cpu time    4.2730: real time    4.2873
    --------------------------------------------
      LOOP:  cpu time  970.1409: real time  973.8334

 eigenvalue-minimisations  :     0
 total energy-change (2. order) :-0.8657154E+03  (-0.6752338E+00)
 number of electron     284.0000008 magnetization 
 augmentation part        5.8424516 magnetization 

 Free energy of the ion-electron system (eV)
  ---------------------------------------------------
  alpha Z        PSCENC =        13.09518144
  Ewald energy   TEWEN  =     59779.64012148
  -Hartree energ DENC   =    -66994.18590551
  -exchange      EXHF   =       731.74884246
  -V(xc)+E(xc)   XCENC  =       705.80295572
  PAW double counting   =     23921.59676199   -23934.59850349
  entropy T*S    EENTRO =        -0.00000000
  eigenvalues    EBANDS =     -3817.73825483
  atomic energy  EATOM  =      8728.92342645
  ---------------------------------------------------
  free energy    TOTEN  =      -865.71537429 eV

  energy without entropy =     -865.71537429  energy(sigma->0) =     -865.71537429
  exchange ACFDT corr.  =         0.00000000  see jH, gK, PRB 81, 115126


--------------------------------------------------------------------------------------------------------




----------------------------------------- Iteration    1(   2)  ---------------------------------------


    POTLOK:  cpu time    3.9361: real time    3.9502
    SETDIJ:  cpu time    0.8156: real time    0.8186
    TRIAL :  cpu time  516.5894: real time  518.8746
    CORREC:  cpu time  441.7109: real time  443.4366
    CHARGE:  cpu time    4.3046: real time    4.3190
    --------------------------------------------
      LOOP:  cpu time  967.3577: real time  971.4008

 eigenvalue-minimisations  :     0
 total energy-change (2. order) :-0.6858960E+00  (-0.1096510E+00)
 number of electron     284.0000008 magnetization 
 augmentation part        5.8192955 magnetization 

 Free energy of the ion-electron system (eV)
  ---------------------------------------------------
  alpha Z        PSCENC =        13.09518144
  Ewald energy   TEWEN  =     59779.64012148
  -Hartree energ DENC   =    -67005.70368355
  -exchange      EXHF   =       732.56527802
  -V(xc)+E(xc)   XCENC  =       705.73336725
  PAW double counting   =     25499.93214740   -25512.37278652
  entropy T*S    EENTRO =        -0.00000000
  eigenvalues    EBANDS =     -3808.21432228
  atomic energy  EATOM  =      8728.92342645
  ---------------------------------------------------
  free energy    TOTEN  =      -866.40127031 eV

  energy without entropy =     -866.40127031  energy(sigma->0) =     -866.40127031
  exchange ACFDT corr.  =        -0.00000000  see jH, gK, PRB 81, 115126


--------------------------------------------------------------------------------------------------------




----------------------------------------- Iteration    1(   3)  ---------------------------------------


    POTLOK:  cpu time    3.9316: real time    3.9464
    SETDIJ:  cpu time    0.8157: real time    0.8183
    TRIAL :  cpu time  517.9565: real time  519.8219
    CORREC:  cpu time  430.7282: real time  432.2544
    CHARGE:  cpu time    3.7472: real time    3.7590
    --------------------------------------------
      LOOP:  cpu time  957.1800: real time  960.6067

 eigenvalue-minimisations  :     0
 total energy-change (2. order) :-0.1096612E+00  (-0.3789143E-01)
 number of electron     284.0000008 magnetization 
 augmentation part        5.8184292 magnetization 

 Free energy of the ion-electron system (eV)
  ---------------------------------------------------
  alpha Z        PSCENC =        13.09518144
  Ewald energy   TEWEN  =     59779.64012148
  -Hartree energ DENC   =    -66993.63154035
  -exchange      EXHF   =       732.52876521
  -V(xc)+E(xc)   XCENC  =       705.48998286
  PAW double counting   =     25985.36396736   -25997.66250705
  entropy T*S    EENTRO =        -0.00000000
  eigenvalues    EBANDS =     -3820.25832894
  atomic energy  EATOM  =      8728.92342645
  ---------------------------------------------------
  free energy    TOTEN  =      -866.51093153 eV

  energy without entropy =     -866.51093153  energy(sigma->0) =     -866.51093153
  exchange ACFDT corr.  =        -0.00000000  see jH, gK, PRB 81, 115126


--------------------------------------------------------------------------------------------------------




----------------------------------------- Iteration    1(   4)  ---------------------------------------


    POTLOK:  cpu time    3.5466: real time    3.5593
    SETDIJ:  cpu time    0.8153: real time    0.8179
    TRIAL :  cpu time  450.4817: real time  452.0323
    CORREC:  cpu time  366.2603: real time  367.4534
    CHARGE:  cpu time    3.5058: real time    3.5173
    --------------------------------------------
      LOOP:  cpu time  824.6107: real time  827.3823

 eigenvalue-minimisations  :     0
 total energy-change (2. order) :-0.3801917E-01  (-0.1200281E-01)
 number of electron     284.0000008 magnetization 
 augmentation part        5.8200589 magnetization 

 Free energy of the ion-electron system (eV)
  ---------------------------------------------------
  alpha Z        PSCENC =        13.09518144
  Ewald energy   TEWEN  =     59779.64012148
  -Hartree energ DENC   =    -67003.07641374
  -exchange      EXHF   =       733.00668998
  -V(xc)+E(xc)   XCENC  =       705.81206777
  PAW double counting   =     26218.49673479   -26230.75677626
  entropy T*S    EENTRO =        -0.00000000
  eigenvalues    EBANDS =     -3811.68998262
  atomic energy  EATOM  =      8728.92342645
  ---------------------------------------------------
  free energy    TOTEN  =      -866.54895070 eV

  energy without entropy =     -866.54895070  energy(sigma->0) =     -866.54895070
  exchange ACFDT corr.  =         0.00000000  see jH, gK, PRB 81, 115126


--------------------------------------------------------------------------------------------------------




----------------------------------------- Iteration    1(   5)  ---------------------------------------


    POTLOK:  cpu time    3.3160: real time    3.3268
    SETDIJ:  cpu time    0.8200: real time    0.8226
    TRIAL :  cpu time  408.0503: real time  409.3108
    CORREC:  cpu time  358.7849: real time  359.8727
    CHARGE:  cpu time    3.4131: real time    3.4231
    --------------------------------------------
      LOOP:  cpu time  774.3846: real time  776.7578

 eigenvalue-minimisations  :     0
 total energy-change (2. order) :-0.1202229E-01  (-0.4846864E-02)
 number of electron     284.0000008 magnetization 
 augmentation part        5.8202358 magnetization 

 Free energy of the ion-electron system (eV)
  ---------------------------------------------------
  alpha Z        PSCENC =        13.09518144
  Ewald energy   TEWEN  =     59779.64012148
  -Hartree energ DENC   =    -67006.45360524
  -exchange      EXHF   =       733.16945005
  -V(xc)+E(xc)   XCENC  =       705.92167209
  PAW double counting   =     26249.91637969   -26262.17560310
  entropy T*S    EENTRO =        -0.00000000
  eigenvalues    EBANDS =     -3808.59799585
  atomic energy  EATOM  =      8728.92342645
  ---------------------------------------------------
  free energy    TOTEN  =      -866.56097298 eV

  energy without entropy =     -866.56097298  energy(sigma->0) =     -866.56097298
  exchange ACFDT corr.  =         0.00000000  see jH, gK, PRB 81, 115126


--------------------------------------------------------------------------------------------------------




----------------------------------------- Iteration    1(   6)  ---------------------------------------


    POTLOK:  cpu time    3.2277: real time    3.2369
    SETDIJ:  cpu time    0.8134: real time    0.8156
    TRIAL :  cpu time  408.3142: real time  409.5492
    CORREC:  cpu time  358.8412: real time  359.8664
    CHARGE:  cpu time    3.3878: real time    3.3967
    --------------------------------------------
      LOOP:  cpu time  774.5852: real time  776.8669

 eigenvalue-minimisations  :     0
 total energy-change (2. order) :-0.4849410E-02  (-0.2010151E-02)
 number of electron     284.0000008 magnetization 
 augmentation part        5.8213864 magnetization 

 Free energy of the ion-electron system (eV)
  ---------------------------------------------------
  alpha Z        PSCENC =        13.09518144
  Ewald energy   TEWEN  =     59779.64012148
  -Hartree energ DENC   =    -67004.53592189
  -exchange      EXHF   =       733.15019790
  -V(xc)+E(xc)   XCENC  =       705.89066677
  PAW double counting   =     26212.70919383   -26224.96904696
  entropy T*S    EENTRO =        -0.00000000
  eigenvalues    EBANDS =     -3810.46964140
  atomic energy  EATOM  =      8728.92342645
  ---------------------------------------------------
  free energy    TOTEN  =      -866.56582239 eV

  energy without entropy =     -866.56582239  energy(sigma->0) =     -866.56582239
  exchange ACFDT corr.  =         0.00000000  see jH, gK, PRB 81, 115126


--------------------------------------------------------------------------------------------------------




----------------------------------------- Iteration    1(   7)  ---------------------------------------


    POTLOK:  cpu time    3.2333: real time    3.2417
    SETDIJ:  cpu time    0.8199: real time    0.8223
    TRIAL :  cpu time  408.1456: real time  409.2827
    CORREC:  cpu time  359.1876: real time  360.1865
    CHARGE:  cpu time    3.4249: real time    3.4341
    --------------------------------------------
      LOOP:  cpu time  774.8123: real time  776.9693

 eigenvalue-minimisations  :     0
 total energy-change (2. order) :-0.2011904E-02  (-0.6809867E-03)
 number of electron     284.0000008 magnetization 
 augmentation part        5.8222675 magnetization 

 Free energy of the ion-electron system (eV)
  ---------------------------------------------------
  alpha Z        PSCENC =        13.09518144
  Ewald energy   TEWEN  =     59779.64012148
  -Hartree energ DENC   =    -67004.51436793
  -exchange      EXHF   =       733.16162067
  -V(xc)+E(xc)   XCENC  =       705.89755196
  PAW double counting   =     26164.66658264   -26176.93561276
  entropy T*S    EENTRO =        -0.00000000
  eigenvalues    EBANDS =     -3810.50233826
  atomic energy  EATOM  =      8728.92342645
  ---------------------------------------------------
  free energy    TOTEN  =      -866.56783430 eV

  energy without entropy =     -866.56783430  energy(sigma->0) =     -866.56783430
  exchange ACFDT corr.  =         0.00000000  see jH, gK, PRB 81, 115126


--------------------------------------------------------------------------------------------------------




----------------------------------------- Iteration    1(   8)  ---------------------------------------


    POTLOK:  cpu time    3.2291: real time    3.2370
    SETDIJ:  cpu time    0.8131: real time    0.8149
    TRIAL :  cpu time  407.9995: real time  409.1329
    CORREC:  cpu time  358.7051: real time  359.6834
    CHARGE:  cpu time    3.3852: real time    3.3939
    --------------------------------------------
      LOOP:  cpu time  774.1328: real time  776.2640

 eigenvalue-minimisations  :     0
 total energy-change (2. order) :-0.6811393E-03  (-0.2336046E-03)
 number of electron     284.0000008 magnetization 
 augmentation part        5.8226853 magnetization 

 Free energy of the ion-electron system (eV)
  ---------------------------------------------------
  alpha Z        PSCENC =        13.09518144
  Ewald energy   TEWEN  =     59779.64012148
  -Hartree energ DENC   =    -67005.58756341
  -exchange      EXHF   =       733.18643236
  -V(xc)+E(xc)   XCENC  =       705.91998562
  PAW double counting   =     26139.11518931   -26151.39212651
  entropy T*S    EENTRO =        -0.00000000
  eigenvalues    EBANDS =     -3809.46916219
  atomic energy  EATOM  =      8728.92342645
  ---------------------------------------------------
  free energy    TOTEN  =      -866.56851544 eV

  energy without entropy =     -866.56851544  energy(sigma->0) =     -866.56851544
  exchange ACFDT corr.  =        -0.00000000  see jH, gK, PRB 81, 115126


--------------------------------------------------------------------------------------------------------




----------------------------------------- Iteration    1(   9)  ---------------------------------------


    POTLOK:  cpu time    3.2264: real time    3.2343
    SETDIJ:  cpu time    0.8126: real time    0.8143
    TRIAL :  cpu time  411.2489: real time  412.3306
    CORREC:  cpu time  357.2089: real time  358.1379
    CHARGE:  cpu time    3.3949: real time    3.4018
    --------------------------------------------
      LOOP:  cpu time  775.8925: real time  777.9211

 eigenvalue-minimisations  :     0
 total energy-change (2. order) :-0.2337974E-03  (-0.6852942E-04)
 number of electron     284.0000008 magnetization 
 augmentation part        5.8228460 magnetization 

 Free energy of the ion-electron system (eV)
  ---------------------------------------------------
  alpha Z        PSCENC =        13.09518144
  Ewald energy   TEWEN  =     59779.64012148
  -Hartree energ DENC   =    -67005.57993342
  -exchange      EXHF   =       733.18420054
  -V(xc)+E(xc)   XCENC  =       705.91838352
  PAW double counting   =     26129.40883839   -26141.68818310
  entropy T*S    EENTRO =        -0.00000000
  eigenvalues    EBANDS =     -3809.47078453
  atomic energy  EATOM  =      8728.92342645
  ---------------------------------------------------
  free energy    TOTEN  =      -866.56874923 eV

  energy without entropy =     -866.56874923  energy(sigma->0) =     -866.56874923
  exchange ACFDT corr.  =        -0.00000000  see jH, gK, PRB 81, 115126


--------------------------------------------------------------------------------------------------------




----------------------------------------- Iteration    1(  10)  ---------------------------------------


    POTLOK:  cpu time    3.2252: real time    3.2326
    SETDIJ:  cpu time    0.8138: real time    0.8156
    TRIAL :  cpu time  411.3788: real time  412.4378
    CORREC:  cpu time  356.6599: real time  357.5115
    CHARGE:  cpu time    3.3995: real time    3.4064
    --------------------------------------------
      LOOP:  cpu time  775.4780: real time  777.4054

 eigenvalue-minimisations  :     0
 total energy-change (2. order) :-0.6847557E-04  (-0.2382697E-04)
 number of electron     284.0000008 magnetization 
 augmentation part        5.8229190 magnetization 

 Free energy of the ion-electron system (eV)
  ---------------------------------------------------
  alpha Z        PSCENC =        13.09518144
  Ewald energy   TEWEN  =     59779.64012148
  -Hartree energ DENC   =    -67005.37925673
  -exchange      EXHF   =       733.17771454
  -V(xc)+E(xc)   XCENC  =       705.91274958
  PAW double counting   =     26129.09854489   -26141.37818035
  entropy T*S    EENTRO =        -0.00000000
  eigenvalues    EBANDS =     -3809.65911901
  atomic energy  EATOM  =      8728.92342645
  ---------------------------------------------------
  free energy    TOTEN  =      -866.56881771 eV

  energy without entropy =     -866.56881771  energy(sigma->0) =     -866.56881771
  exchange ACFDT corr.  =         0.00000000  see jH, gK, PRB 81, 115126


--------------------------------------------------------------------------------------------------------




----------------------------------------- Iteration    1(  11)  ---------------------------------------


    POTLOK:  cpu time    3.2292: real time    3.2366
    SETDIJ:  cpu time    0.8129: real time    0.8143
    TRIAL :  cpu time  410.7629: real time  411.7207
    CORREC:  cpu time  356.3928: real time  357.1925
    CHARGE:  cpu time    3.3911: real time    3.3984
    --------------------------------------------
      LOOP:  cpu time  774.5900: real time  776.3647

 eigenvalue-minimisations  :     0
 total energy-change (2. order) :-0.2368858E-04  (-0.9888816E-05)
 number of electron     284.0000008 magnetization 
 augmentation part        5.8229816 magnetization 

 Free energy of the ion-electron system (eV)
  ---------------------------------------------------
  alpha Z        PSCENC =        13.09518144
  Ewald energy   TEWEN  =     59779.64012148
  -Hartree energ DENC   =    -67005.50740699
  -exchange      EXHF   =       733.17893331
  -V(xc)+E(xc)   XCENC  =       705.91395291
  PAW double counting   =     26131.77736298   -26144.05723345
  entropy T*S    EENTRO =        -0.00000000
  eigenvalues    EBANDS =     -3809.53317952
  atomic energy  EATOM  =      8728.92342645
  ---------------------------------------------------
  free energy    TOTEN  =      -866.56884140 eV

  energy without entropy =     -866.56884140  energy(sigma->0) =     -866.56884140
  exchange ACFDT corr.  =        -0.00000000  see jH, gK, PRB 81, 115126


--------------------------------------------------------------------------------------------------------




----------------------------------------- Iteration    1(  12)  ---------------------------------------


    POTLOK:  cpu time    3.2308: real time    3.2373
    SETDIJ:  cpu time    0.8127: real time    0.8141
    TRIAL :  cpu time  411.0863: real time  412.0412
    CORREC:  cpu time  356.7139: real time  357.5070
    CHARGE:  cpu time    3.3945: real time    3.4017
    --------------------------------------------
      LOOP:  cpu time  775.2394: real time  777.0036

 eigenvalue-minimisations  :     0
 total energy-change (2. order) :-0.9666299E-05  (-0.4083439E-05)
 number of electron     284.0000008 magnetization 
 augmentation part        5.8229957 magnetization 

 Free energy of the ion-electron system (eV)
  ---------------------------------------------------
  alpha Z        PSCENC =        13.09518144
  Ewald energy   TEWEN  =     59779.64012148
  -Hartree energ DENC   =    -67005.57343519
  -exchange      EXHF   =       733.18024410
  -V(xc)+E(xc)   XCENC  =       705.91512435
  PAW double counting   =     26134.69390787   -26146.97372922
  entropy T*S    EENTRO =        -0.00000000
  eigenvalues    EBANDS =     -3809.46969235
  atomic energy  EATOM  =      8728.92342645
  ---------------------------------------------------
  free energy    TOTEN  =      -866.56885107 eV

  energy without entropy =     -866.56885107  energy(sigma->0) =     -866.56885107
  exchange ACFDT corr.  =         0.00000000  see jH, gK, PRB 81, 115126


--------------------------------------------------------------------------------------------------------




----------------------------------------- Iteration    1(  13)  ---------------------------------------


    POTLOK:  cpu time    3.2542: real time    3.2612
    SETDIJ:  cpu time    0.8139: real time    0.8153
    TRIAL :  cpu time  410.4763: real time  411.4219
    CORREC:  cpu time  356.5320: real time  357.3264
    CHARGE:  cpu time    3.4355: real time    3.4430
    --------------------------------------------
      LOOP:  cpu time  774.5128: real time  776.2698

 eigenvalue-minimisations  :     0
 total energy-change (2. order) :-0.3920721E-05  (-0.1954775E-05)
 number of electron     284.0000008 magnetization 
 augmentation part        5.8229749 magnetization 

 Free energy of the ion-electron system (eV)
  ---------------------------------------------------
  alpha Z        PSCENC =        13.09518144
  Ewald energy   TEWEN  =     59779.64012148
  -Hartree energ DENC   =    -67005.52222187
  -exchange      EXHF   =       733.17936475
  -V(xc)+E(xc)   XCENC  =       705.91428865
  PAW double counting   =     26136.33250546   -26148.61207754
  entropy T*S    EENTRO =        -0.00000000
  eigenvalues    EBANDS =     -3809.51944380
  atomic energy  EATOM  =      8728.92342645
  ---------------------------------------------------
  free energy    TOTEN  =      -866.56885499 eV

  energy without entropy =     -866.56885499  energy(sigma->0) =     -866.56885499
  exchange ACFDT corr.  =        -0.00000000  see jH, gK, PRB 81, 115126


--------------------------------------------------------------------------------------------------------




----------------------------------------- Iteration    1(  14)  ---------------------------------------


    POTLOK:  cpu time    3.2198: real time    3.2262
    SETDIJ:  cpu time    0.8133: real time    0.8147
    TRIAL :  cpu time  410.7548: real time  411.7061
    CORREC:  cpu time  353.9167: real time  354.7388
    CHARGE:  cpu time    3.2985: real time    3.3063
    --------------------------------------------
      LOOP:  cpu time  772.0038: real time  773.7942

 eigenvalue-minimisations  :     0
 total energy-change (2. order) :-0.1793303E-05  (-0.1055905E-05)
 number of electron     284.0000008 magnetization 
 augmentation part        5.8229569 magnetization 

 Free energy of the ion-electron system (eV)
  ---------------------------------------------------
  alpha Z        PSCENC =        13.09518144
  Ewald energy   TEWEN  =     59779.64012148
  -Hartree energ DENC   =    -67005.49701266
  -exchange      EXHF   =       733.17870465
  -V(xc)+E(xc)   XCENC  =       705.91366699
  PAW double counting   =     26136.89327483   -26149.17267725
  entropy T*S    EENTRO =        -0.00000000
  eigenvalues    EBANDS =     -3809.54354272
  atomic energy  EATOM  =      8728.92342645
  ---------------------------------------------------
  free energy    TOTEN  =      -866.56885678 eV

  energy without entropy =     -866.56885678  energy(sigma->0) =     -866.56885678
  exchange ACFDT corr.  =        -0.00000000  see jH, gK, PRB 81, 115126


--------------------------------------------------------------------------------------------------------




----------------------------------------- Iteration    1(  15)  ---------------------------------------


    POTLOK:  cpu time    3.1381: real time    3.1452
    SETDIJ:  cpu time    0.8167: real time    0.8185
    TRIAL :  cpu time  371.0624: real time  371.9020
    CORREC:  cpu time  323.0075: real time  323.7140
    CHARGE:  cpu time    3.0930: real time    3.0994
    --------------------------------------------
      LOOP:  cpu time  701.1184: real time  702.6811

 eigenvalue-minimisations  :     0
 total energy-change (2. order) :-0.8046318E-06  (-0.4786835E-06)
 number of electron     284.0000008 magnetization 
 augmentation part        5.8229506 magnetization 

 Free energy of the ion-electron system (eV)
  ---------------------------------------------------
  alpha Z        PSCENC =        13.09518144
  Ewald energy   TEWEN  =     59779.64012148
  -Hartree energ DENC   =    -67005.51892228
  -exchange      EXHF   =       733.17916587
  -V(xc)+E(xc)   XCENC  =       705.91403839
  PAW double counting   =     26136.81365568   -26149.09303037
  entropy T*S    EENTRO =        -0.00000000
  eigenvalues    EBANDS =     -3809.52249424
  atomic energy  EATOM  =      8728.92342645
  ---------------------------------------------------
  free energy    TOTEN  =      -866.56885758 eV

  energy without entropy =     -866.56885758  energy(sigma->0) =     -866.56885758
  exchange ACFDT corr.  =        -0.00000000  see jH, gK, PRB 81, 115126


--------------------------------------------------------------------------------------------------------


  average scaling for gradient   1.5450


 average (electrostatic) potential at core
  the test charge radii are     0.6991  0.5201  0.7215  0.9587
  (the norm of the test charge is              1.0000)
       1 -53.8035       2 -54.3156       3 -53.8583       4 -53.8507       5 -54.0815
       6 -53.7944       7 -54.3281       8 -54.0288       9 -53.4530      10 -53.2688
      11 -53.3036      12 -54.7885      13 -55.0598      14 -55.1284      15 -54.6941
      16 -54.4907      17 -54.2549      18 -53.6856      19 -53.6468      20 -53.4191
      21 -53.9489      22 -54.1647      23 -54.4200      24 -53.8697      25 -53.9905
      26 -53.9431      27 -53.9491      28 -54.6294      29 -54.5917      30 -53.9794
      31 -53.9940      32 -53.8668      33 -55.1019      34 -54.6390      35 -54.3077
      36 -54.2469      37 -54.1909      38 -54.0641      39 -53.9549      40 -54.3176
      41 -53.9283      42 -53.3560      43 -53.7565      44 -54.5194      45 -54.4629
      46 -53.8250      47 -54.0081      48 -53.8141      49 -53.8973      50 -36.7396
      51 -36.9715      52 -36.6325      53 -36.7071      54 -36.6529      55 -36.8098
      56 -36.7558      57 -36.6961      58 -36.8247      59 -37.0281      60 -36.8150
      61 -36.5973      62 -36.0822      63 -36.1603      64 -36.0287      65 -35.9757
      66 -36.0852      67 -35.9651      68 -36.4076      69 -36.8825      70 -36.2964
      71 -36.9012      72 -36.7704      73 -36.5683      74 -36.5625      75 -36.4280
      76 -36.4490      77 -36.2978      78 -37.1482      79 -36.7322      80 -36.7298
      81 -36.8718      82 -36.9931      83 -36.7570      84 -36.8839      85 -36.8385
      86 -36.6392      87 -36.8985      88 -37.2223      89 -36.7889      90 -36.9535
      91 -37.1328      92 -36.6336      93 -36.9892      94 -37.1158      95 -36.6922
      96 -37.1385      97 -36.9857      98 -37.4896      99 -37.1313     100 -37.3022
     101 -37.1838     102 -36.5786     103 -36.5886     104 -36.6343     105 -37.1861
     106 -36.2815     107 -36.4931     108 -36.0866     109 -36.9072     110 -36.5985
     111 -36.8535     112 -37.0152     113 -36.9025     114 -36.5812     115 -37.1576
     116 -36.9954     117 -36.4095     118 -37.0137     119 -36.9473     120 -36.7328
     121 -37.1762     122 -70.8132     123 -89.3264     124 -89.7627
 
 
 
 E-fermi :  -5.6883     XC(G=0):  -0.3404     alpha+bet : -0.2746


 k-point     1 :       0.0000    0.0000    0.0000
  band No.  band energies     occupation 
      1     -25.5515      2.00000
      2     -24.8798      2.00000
      3     -24.6374      2.00000
      4     -24.2125      2.00000
      5     -23.7938      2.00000
      6     -23.6293      2.00000
      7     -23.5949      2.00000
      8     -23.3439      2.00000
      9     -23.0365      2.00000
     10     -22.6858      2.00000
     11     -22.3946      2.00000
     12     -22.2836      2.00000
     13     -21.7276      2.00000
     14     -21.2718      2.00000
     15     -20.7132      2.00000
     16     -20.6055      2.00000
     17     -20.5564      2.00000
     18     -20.3176      2.00000
     19     -19.6676      2.00000
     20     -19.2885      2.00000
     21     -19.2637      2.00000
     22     -19.2146      2.00000
     23     -19.1797      2.00000
     24     -19.1214      2.00000
     25     -19.0819      2.00000
     26     -19.0267      2.00000
     27     -18.9900      2.00000
     28     -18.9725      2.00000
     29     -18.9111      2.00000
     30     -18.7516      2.00000
     31     -18.6577      2.00000
     32     -18.5278      2.00000
     33     -18.4663      2.00000
     34     -18.1452      2.00000
     35     -17.4228      2.00000
     36     -17.3712      2.00000
     37     -17.2325      2.00000
     38     -17.0831      2.00000
     39     -16.8987      2.00000
     40     -16.4629      2.00000
     41     -16.4056      2.00000
     42     -16.2180      2.00000
     43     -15.5607      2.00000
     44     -15.1924      2.00000
     45     -14.7901      2.00000
     46     -14.7208      2.00000
     47     -14.5120      2.00000
     48     -14.4202      2.00000
     49     -14.3509      2.00000
     50     -14.2253      2.00000
     51     -13.7656      2.00000
     52     -13.5276      2.00000
     53     -13.4224      2.00000
     54     -13.3810      2.00000
     55     -13.1355      2.00000
     56     -13.0456      2.00000
     57     -12.8611      2.00000
     58     -12.8286      2.00000
     59     -12.7446      2.00000
     60     -12.7360      2.00000
     61     -12.6136      2.00000
     62     -12.5828      2.00000
     63     -12.5504      2.00000
     64     -12.4442      2.00000
     65     -12.4108      2.00000
     66     -12.3715      2.00000
     67     -12.2943      2.00000
     68     -12.2757      2.00000
     69     -12.2427      2.00000
     70     -12.1531      2.00000
     71     -12.1410      2.00000
     72     -12.0102      2.00000
     73     -11.9758      2.00000
     74     -11.9176      2.00000
     75     -11.8092      2.00000
     76     -11.7994      2.00000
     77     -11.6549      2.00000
     78     -11.5133      2.00000
     79     -11.3306      2.00000
     80     -11.2952      2.00000
     81     -11.2425      2.00000
     82     -11.1851      2.00000
     83     -11.1318      2.00000
     84     -11.0886      2.00000
     85     -10.9919      2.00000
     86     -10.9285      2.00000
     87     -10.7994      2.00000
     88     -10.7163      2.00000
     89     -10.7061      2.00000
     90     -10.5900      2.00000
     91     -10.4388      2.00000
     92     -10.3315      2.00000
     93     -10.3157      2.00000
     94     -10.2294      2.00000
     95     -10.1575      2.00000
     96     -10.1135      2.00000
     97     -10.0896      2.00000
     98     -10.0600      2.00000
     99      -9.9451      2.00000
    100      -9.9037      2.00000
    101      -9.8559      2.00000
    102      -9.7833      2.00000
    103      -9.7743      2.00000
    104      -9.7333      2.00000
    105      -9.6684      2.00000
    106      -9.5646      2.00000
    107      -9.5609      2.00000
    108      -9.5106      2.00000
    109      -9.4925      2.00000
    110      -9.4553      2.00000
    111      -9.3535      2.00000
    112      -9.3194      2.00000
    113      -9.3166      2.00000
    114      -9.2870      2.00000
    115      -9.2374      2.00000
    116      -9.1704      2.00000
    117      -9.1500      2.00000
    118      -9.1008      2.00000
    119      -9.0251      2.00000
    120      -8.9656      2.00000
    121      -8.8848      2.00000
    122      -8.8054      2.00000
    123      -8.7618      2.00000
    124      -8.6689      2.00000
    125      -8.6329      2.00000
    126      -8.5517      2.00000
    127      -8.4537      2.00000
    128      -8.3111      2.00000
    129      -8.0942      2.00000
    130      -7.9682      2.00000
    131      -7.8106      2.00000
    132      -7.6271      2.00000
    133      -7.4954      2.00000
    134      -7.2093      2.00000
    135      -6.9405      2.00000
    136      -6.8349      2.00000
    137      -6.6876      2.00000
    138      -6.5783      2.00000
    139      -6.4349      2.00000
    140      -6.3440      2.00000
    141      -6.2299      2.00000
    142      -5.9397      2.00000
    143      -2.8097      0.00000
    144      -0.5481      0.00000
    145      -0.3888      0.00000
    146      -0.1999      0.00000
    147      -0.1645      0.00000
    148      -0.0950      0.00000
    149      -0.0280      0.00000
    150       0.0208      0.00000
    151       0.0400      0.00000
    152       0.1189      0.00000
    153       0.1694      0.00000
    154       0.1932      0.00000
    155       0.2254      0.00000
    156       0.2516      0.00000
    157       0.2718      0.00000
    158       0.2994      0.00000
    159       0.3523      0.00000
    160       0.3727      0.00000
    161       0.3741      0.00000
    162       0.3782      0.00000
    163       0.3933      0.00000
    164       0.4148      0.00000
    165       0.4336      0.00000
    166       0.4435      0.00000
    167       0.4478      0.00000
    168       0.4553      0.00000
    169       0.4596      0.00000
    170       0.5373      0.00000
    171       0.5566      0.00000
    172       0.5628      0.00000
    173       0.5823      0.00000
    174       0.5840      0.00000
    175       0.5912      0.00000
    176       0.5970      0.00000
    177       0.6027      0.00000
    178       0.6096      0.00000
    179       0.6222      0.00000
    180       0.6301      0.00000
    181       0.6842      0.00000
    182       0.6889      0.00000
    183       0.7346      0.00000
    184       0.7414      0.00000
    185       0.7773      0.00000
    186       0.7869      0.00000
    187       0.8084      0.00000
    188       0.8177      0.00000
    189       0.8378      0.00000
    190       0.8440      0.00000
    191       0.8541      0.00000
    192       0.8579      0.00000
    193       0.8880      0.00000
    194       0.9033      0.00000
    195       0.9085      0.00000
    196       0.9131      0.00000
    197       0.9438      0.00000
    198       0.9546      0.00000
    199       0.9680      0.00000
    200       0.9803      0.00000
    201       0.9873      0.00000
    202       1.0106      0.00000
    203       1.0453      0.00000
    204       1.0975      0.00000
    205       1.1832      0.00000
    206       1.1657      0.00000
    207       1.2585      0.00000
    208       1.5205      0.00000


--------------------------------------------------------------------------------------------------------


 soft charge-density along one line, spin component           1
         0         1         2         3         4         5         6         7         8         9
 total charge-density along one line
 
 pseudopotential strength for first ion, spin component:           1
  9.911  13.176  -0.001  -0.001  -0.001   0.002   0.002   0.003
 13.176  17.517  -0.002  -0.001  -0.002   0.002   0.002   0.004
 -0.001  -0.002  -4.146   0.001  -0.000   8.088  -0.002   0.000
 -0.001  -0.001   0.001  -4.147   0.001  -0.002   8.088  -0.002
 -0.001  -0.002  -0.000   0.001  -4.146   0.000  -0.002   8.088
  0.002   0.002   8.088  -0.002   0.000 -17.889   0.004  -0.001
  0.002   0.002  -0.002   8.088  -0.002   0.004 -17.890   0.004
  0.003   0.004   0.000  -0.002   8.088  -0.001   0.004 -17.889
 total augmentation occupancy for first ion, spin component:           1
  8.602  -3.874   0.043   0.026  -0.028   0.007   0.013  -0.001
 -3.874   1.770  -0.017  -0.015   0.027  -0.004  -0.010  -0.001
  0.043  -0.017   1.608  -0.021   0.005   0.140  -0.004   0.002
  0.026  -0.015  -0.021   1.632  -0.017  -0.004   0.145   0.002
 -0.028   0.027   0.005  -0.017   1.615   0.002   0.002   0.140
  0.007  -0.004   0.140  -0.004   0.002   0.012  -0.000   0.000
  0.013  -0.010  -0.004   0.145   0.002  -0.000   0.013   0.001
 -0.001  -0.001   0.002   0.002   0.140   0.000   0.001   0.013


------------------------ aborting loop because EDIFF is reached ----------------------------------------


    FORLOC:  cpu time    2.7141: real time    2.7192
    FORHF :  cpu time  304.2684: real time  304.9849
    FORNL :  cpu time   69.1888: real time   69.3537
    FORCOR:  cpu time    4.6307: real time    4.6386
    OFIELD:  cpu time    0.0069: real time    0.0069

  Hirshfeld charges:
            ion         q(e)     
   ------------------------------
      1     C          -0.108
      2     C           0.013
      3     C          -0.108
      4     C          -0.108
      5     C          -0.004
      6     C          -0.049
      7     C           0.013
      8     C           0.014
      9     C          -0.111
     10     C          -0.108
     11     C          -0.116
     12     C          -0.011
     13     C          -0.088
     14     C          -0.032
     15     C          -0.013
     16     C           0.010
     17     C           0.012
     18     C          -0.109
     19     C          -0.114
     20     C          -0.114
     21     C          -0.048
     22     C          -0.001
     23     C           0.012
     24     C          -0.109
     25     C          -0.106
     26     C          -0.108
     27     C          -0.052
     28     C           0.009
     29     C           0.010
     30     C          -0.111
     31     C          -0.105
     32     C          -0.107
     33     C          -0.023
     34     C           0.004
     35     C          -0.041
     36     C          -0.049
     37     C          -0.049
     38     C          -0.043
     39     C          -0.029
     40     C          -0.027
     41     C          -0.115
     42     C          -0.116
     43     C          -0.109
     44     C           0.007
     45     C           0.008
     46     C          -0.107
     47     C          -0.116
     48     C          -0.108
     49     C          -0.055
     50     H           0.035
     51     H           0.041
     52     H           0.041
     53     H           0.036
     54     H           0.036
     55     H           0.039
     56     H           0.039
     57     H           0.037
     58     H           0.038
     59     H           0.036
     60     H           0.035
     61     H           0.031
     62     H           0.030
     63     H           0.028
     64     H           0.041
     65     H           0.027
     66     H           0.032
     67     H           0.030
     68     H           0.023
     69     H           0.036
     70     H           0.030
     71     H           0.040
     72     H           0.030
     73     H           0.035
     74     H           0.040
     75     H           0.038
     76     H           0.033
     77     H           0.036
     78     H           0.038
     79     H           0.036
     80     H           0.037
     81     H           0.039
     82     H           0.041
     83     H           0.037
     84     H           0.041
     85     H           0.038
     86     H           0.037
     87     H           0.040
     88     H           0.032
     89     H           0.037
     90     H           0.044
     91     H           0.020
     92     H           0.036
     93     H           0.038
     94     H           0.029
     95     H           0.033
     96     H           0.035
     97     H           0.037
     98     H           0.038
     99     H           0.044
    100     H           0.049
    101     H           0.051
    102     H           0.041
    103     H           0.036
    104     H           0.039
    105     H           0.031
    106     H           0.033
    107     H           0.027
    108     H           0.032
    109     H           0.042
    110     H           0.043
    111     H           0.024
    112     H           0.041
    113     H           0.035
    114     H           0.029
    115     H           0.036
    116     H           0.025
    117     H           0.031
    118     H           0.036
    119     H           0.041
    120     H           0.037
    121     H           0.036
    122     O          -0.351
    123     P           0.223
    124     P           0.368

  Atomic reference data used in the T-S method for vdW correction:
            C6at              R0at           ALPHAat      REFSTATE
            (au)              (au)            (au)                
   ---------------------------------------------------------------
   C          46.600          3.590         12.000         0
   H           6.500          3.099          4.500         0
   O          15.600          3.194          5.400         0
   P         185.000          4.006         25.000         0

  Tkatchenko/Scheffler method for vdW energy calculation
  ---------------------------------------------------------------------------------------------

  Parameters of vdW forcefield:
            C6ts              R0ts           ALPHAts        RELVOL
            (au)              (au)            (au)                
   ---------------------------------------------------------------
   C          29.186          3.321          9.497          0.791
   C          33.676          3.401         10.201          0.850
   C          29.047          3.318          9.474          0.790
   C          28.765          3.313          9.428          0.786
   C          33.415          3.397         10.162          0.847
   C          32.675          3.384         10.048          0.837
   C          34.156          3.409         10.274          0.856
   C          34.797          3.420         10.369          0.864
   C          30.308          3.342          9.678          0.806
   C          30.608          3.348          9.725          0.810
   C          31.084          3.356          9.801          0.817
   C          35.038          3.424         10.405          0.867
   C          36.518          3.448         10.623          0.885
   C          35.486          3.431         10.472          0.873
   C          34.462          3.414         10.320          0.860
   C          33.941          3.406         10.241          0.853
   C          34.385          3.413         10.308          0.859
   C          29.736          3.331          9.586          0.799
   C          30.134          3.339          9.650          0.804
   C          30.328          3.342          9.681          0.807
   C          32.481          3.381         10.018          0.835
   C          33.493          3.398         10.173          0.848
   C          33.645          3.401         10.196          0.850
   C          28.772          3.313          9.429          0.786
   C          29.137          3.320          9.489          0.791
   C          28.995          3.317          9.466          0.789
   C          32.706          3.385         10.053          0.838
   C          34.041          3.407         10.256          0.855
   C          34.455          3.414         10.318          0.860
   C          30.437          3.344          9.698          0.808
   C          30.108          3.338          9.646          0.804
   C          29.813          3.333          9.598          0.800
   C          35.269          3.428         10.440          0.870
   C          34.088          3.408         10.263          0.855
   C          31.640          3.366          9.888          0.824
   C          30.408          3.344          9.694          0.808
   C          29.894          3.334          9.611          0.801
   C          29.930          3.335          9.617          0.801
   C          32.299          3.378          9.990          0.833
   C          34.974          3.423         10.396          0.866
   C          30.219          3.340          9.663          0.805
   C          30.464          3.345          9.702          0.809
   C          30.196          3.340          9.660          0.805
   C          34.438          3.414         10.316          0.860
   C          34.814          3.420         10.372          0.864
   C          29.939          3.335          9.619          0.802
   C          32.038          3.373          9.950          0.829
   C          29.917          3.335          9.615          0.801
   C          32.569          3.382         10.032          0.836
   H           2.694          2.676          2.897          0.644
   H           2.639          2.667          2.867          0.637
   H           2.733          2.682          2.918          0.648
   H           2.700          2.677          2.900          0.645
   H           2.641          2.667          2.869          0.637
   H           2.570          2.655          2.830          0.629
   H           2.626          2.665          2.860          0.636
   H           2.627          2.665          2.861          0.636
   H           2.557          2.653          2.822          0.627
   H           3.555          2.803          3.328          0.740
   H           2.795          2.692          2.951          0.656
   H           2.962          2.719          3.038          0.675
   H           2.865          2.704          2.988          0.664
   H           3.276          2.765          3.195          0.710
   H           2.910          2.711          3.011          0.669
   H           2.722          2.681          2.912          0.647
   H           3.321          2.771          3.217          0.715
   H           2.769          2.688          2.937          0.653
   H           3.276          2.765          3.195          0.710
   H           2.720          2.680          2.911          0.647
   H           2.791          2.692          2.949          0.655
   H           2.690          2.675          2.895          0.643
   H           2.997          2.724          3.055          0.679
   H           3.346          2.774          3.229          0.717
   H           2.618          2.663          2.856          0.635
   H           2.630          2.665          2.862          0.636
   H           3.203          2.754          3.159          0.702
   H           3.339          2.773          3.225          0.717
   H           3.402          2.782          3.256          0.723
   H           2.566          2.654          2.827          0.628
   H           2.761          2.687          2.933          0.652
   H           2.547          2.651          2.817          0.626
   H           2.586          2.658          2.838          0.631
   H           2.577          2.656          2.834          0.630
   H           2.692          2.676          2.896          0.644
   H           2.605          2.661          2.849          0.633
   H           2.743          2.684          2.923          0.650
   H           2.540          2.650          2.813          0.625
   H           3.555          2.803          3.328          0.740
   H           2.955          2.718          3.034          0.674
   H           2.677          2.673          2.888          0.642
   H           3.602          2.809          3.350          0.744
   H           2.685          2.674          2.892          0.643
   H           2.999          2.724          3.057          0.679
   H           3.098          2.739          3.107          0.690
   H           2.677          2.673          2.888          0.642
   H           2.846          2.701          2.978          0.662
   H           2.796          2.693          2.951          0.656
   H           3.234          2.759          3.174          0.705
   H           2.395          2.624          2.731          0.607
   H           2.331          2.612          2.695          0.599
   H           2.327          2.612          2.693          0.598
   H           3.395          2.781          3.252          0.723
   H           2.722          2.681          2.912          0.647
   H           3.009          2.726          3.062          0.680
   H           3.073          2.735          3.094          0.688
   H           2.666          2.671          2.882          0.640
   H           3.045          2.731          3.080          0.684
   H           3.219          2.757          3.167          0.704
   H           2.824          2.697          2.966          0.659
   H           2.709          2.678          2.905          0.646
   H           3.587          2.807          3.343          0.743
   H           2.831          2.698          2.970          0.660
   H           2.747          2.685          2.926          0.650
   H           2.790          2.692          2.948          0.655
   H           3.185          2.752          3.150          0.700
   H           3.659          2.816          3.376          0.750
   H           2.988          2.723          3.051          0.678
   H           3.150          2.747          3.133          0.696
   H           3.005          2.725          3.060          0.680
   H           2.702          2.677          2.901          0.645
   H           3.411          2.783          3.260          0.724
   O          14.190          3.144          5.150          0.954
   P         137.857          3.815         21.581          0.863
   P         141.385          3.831         21.855          0.874

  IVDW =   2
  VDW_RADIUS =    50.000 A
  VDW_IDAMPF =  0
  VDW_S6 =     1.000
  VDW_SR =     0.940
  VDW_D =    20.000
  LVDW_ONECELL = F F F
  LVDW_SAMETYPE T T T T
  LVDW_EWALD = F

  Number of pair interactions contributing to vdW energy:  161147
  Edisp (eV):   -3.65939
    FORVDW:  cpu time   25.9916: real time   26.0275

 VOLUME and BASIS-vectors are now :
 -----------------------------------------------------------------------------
  energy-cutoff  :      500.00
  volume of cell :    27000.00
      direct lattice vectors                 reciprocal lattice vectors
    30.000000000  0.000000000  0.000000000     0.033333333  0.000000000  0.000000000
     0.000000000 30.000000000  0.000000000     0.000000000  0.033333333  0.000000000
     0.000000000  0.000000000 30.000000000     0.000000000  0.000000000  0.033333333

  length of vectors
    30.000000000 30.000000000 30.000000000     0.033333333  0.033333333  0.033333333


 FORCES acting on ions:
    Electron-Ion                     Ewald-Force                    Non-Local-Force
 -----------------------------------------------------------------------------------------------
   0.286E+03 -.513E+02 0.175E+03   -.286E+03 0.508E+02 -.175E+03   -.123E+01 -.695E+00 -.318E+00
   0.210E+03 -.125E+03 -.117E+02   -.210E+03 0.125E+03 0.115E+02   -.553E-02 0.328E+00 0.431E-01
   0.288E+03 -.333E+02 -.175E+03   -.288E+03 0.333E+02 0.176E+03   -.441E+00 -.204E+00 0.169E+01
   0.961E+02 -.327E+03 -.110E+02   -.957E+02 0.327E+03 0.111E+02   -.159E+00 0.454E+00 -.376E+00
   0.187E+03 -.107E+03 -.156E+02   -.188E+03 0.107E+03 0.150E+02   0.578E+00 -.177E+00 -.715E+00
   0.200E+03 -.100E+03 0.163E+03   -.200E+03 0.996E+02 -.165E+03   0.150E+01 -.470E+00 0.114E+01
   0.140E+03 -.636E+02 0.107E+03   -.141E+03 0.644E+02 -.108E+03   -.774E+00 0.128E+00 0.131E+01
   0.103E+03 -.103E+02 0.216E+03   -.103E+03 0.967E+01 -.218E+03   -.233E+01 0.132E+01 -.127E+01
   0.213E+03 -.918E+02 0.321E+03   -.212E+03 0.904E+02 -.321E+03   0.521E+00 -.499E+00 -.182E+01
   0.182E+03 0.223E+03 0.238E+03   -.181E+03 -.225E+03 -.238E+03   -.149E+01 -.216E+00 -.679E+00
   -.420E+02 -.150E+03 0.292E+03   0.436E+02 0.150E+03 -.293E+03   0.392E+00 0.134E+01 -.125E+01
   0.953E+02 -.295E+02 0.116E+00   -.987E+02 0.304E+02 0.196E+00   0.285E+01 -.638E+00 0.405E-01
   0.540E+02 -.284E+02 0.155E+01   -.547E+02 0.297E+02 -.140E+01   0.421E+01 0.285E+01 0.138E+01
   -.831E+01 -.110E+03 -.144E+02   0.850E+01 0.111E+03 0.151E+02   -.236E+01 -.536E-01 -.168E+00
   -.672E+02 -.825E+02 -.133E+02   0.683E+02 0.829E+02 0.141E+02   -.230E+01 -.111E+01 0.240E+00
   -.126E+03 -.100E+03 0.109E+03   0.127E+03 0.101E+03 -.110E+03   0.135E+01 0.614E+00 0.130E+01
   -.809E+02 -.881E+02 0.219E+03   0.804E+02 0.878E+02 -.221E+03   0.134E+01 0.939E+00 -.126E+01
   -.208E+03 -.147E+03 0.310E+03   0.207E+03 0.146E+03 -.310E+03   -.449E+00 0.166E+00 -.178E+01
   0.683E+02 -.247E+03 0.234E+03   -.690E+02 0.246E+03 -.234E+03   -.367E+00 0.741E+00 -.369E+00
   -.112E+03 0.131E+03 0.314E+03   0.111E+03 -.132E+03 -.314E+03   0.563E+00 -.655E-01 -.281E+00
   -.208E+03 -.126E+03 0.161E+03   0.208E+03 0.127E+03 -.163E+03   -.249E+00 -.538E+00 0.663E+00
   -.195E+03 -.106E+03 -.218E+02   0.195E+03 0.107E+03 0.226E+02   -.935E+00 -.530E+00 0.767E-01
   -.229E+03 -.118E+03 -.170E+02   0.229E+03 0.118E+03 0.172E+02   -.463E+00 -.399E+00 0.352E+00
   -.170E+03 -.292E+03 0.930E+02   0.170E+03 0.292E+03 -.935E+02   0.475E+00 0.712E+00 -.104E+01
   -.228E+03 -.134E+03 -.226E+03   0.228E+03 0.134E+03 0.226E+03   0.884E+00 0.106E+01 0.934E+00
   -.330E+03 0.782E+02 0.608E+02   0.330E+03 -.786E+02 -.608E+02   0.217E+00 -.125E+01 -.465E+00
   -.197E+03 -.893E+02 -.186E+03   0.197E+03 0.893E+02 0.188E+03   -.176E+00 -.108E+00 -.148E+01
   -.117E+03 -.522E+02 -.119E+03   0.119E+03 0.520E+02 0.118E+03   0.108E+01 0.127E+01 -.136E+01
   -.595E+02 -.358E+02 -.224E+03   0.592E+02 0.357E+02 0.226E+03   0.160E+01 0.103E+01 0.225E+01
   -.255E+02 0.174E+03 -.296E+03   0.249E+02 -.176E+03 0.297E+03   -.106E+01 0.361E-01 0.108E+01
   0.443E+02 -.262E+03 -.243E+03   -.447E+02 0.262E+03 0.243E+03   0.596E+00 0.132E+01 0.114E+01
   -.203E+03 -.174E+02 -.346E+03   0.202E+03 0.173E+02 0.345E+03   -.633E-01 -.121E+01 0.170E+01
   -.262E+02 0.107E+03 0.116E+02   0.264E+02 -.109E+03 -.110E+02   0.342E+00 0.827E+00 0.487E+00
   -.103E+03 0.163E+03 0.112E+02   0.103E+03 -.164E+03 -.119E+02   -.137E+01 0.201E+00 -.430E+00
   -.221E+03 0.163E+03 -.152E+03   0.223E+03 -.163E+03 0.153E+03   -.759E-01 -.881E+00 -.877E+00
   -.287E+03 0.234E+03 -.110E+03   0.288E+03 -.234E+03 0.111E+03   -.265E+00 0.207E+00 0.124E+00
   -.239E+03 0.330E+03 0.692E+02   0.240E+03 -.331E+03 -.698E+02   -.311E+00 0.280E+00 0.275E-01
   -.909E+02 0.316E+03 0.228E+03   0.898E+02 -.316E+03 -.229E+03   0.229E+00 0.429E+00 0.734E+00
   -.353E+02 0.235E+03 0.217E+03   0.332E+02 -.235E+03 -.220E+03   0.209E+01 -.110E+01 0.723E+00
   0.897E+02 0.231E+03 -.630E+02   -.897E+02 -.232E+03 0.623E+02   0.410E-01 -.124E+01 0.793E+00
   -.153E+02 0.269E+03 -.268E+03   0.158E+02 -.270E+03 0.268E+03   -.739E+00 -.112E+01 0.100E+01
   0.641E+02 0.396E+03 0.860E+02   -.640E+02 -.396E+03 -.876E+02   -.956E+00 -.540E+00 0.103E+01
   0.281E+03 0.257E+03 -.634E+02   -.282E+03 -.257E+03 0.634E+02   0.385E+00 0.616E+00 -.666E+00
   0.118E+03 -.868E+02 -.107E+03   -.119E+03 0.881E+02 0.106E+03   -.104E+01 -.103E+00 -.955E+00
   0.870E+02 -.328E+02 -.209E+03   -.875E+02 0.322E+02 0.211E+03   -.150E+01 0.144E+00 0.216E+01
   0.169E+03 -.138E+03 -.332E+03   -.168E+03 0.137E+03 0.332E+03   0.488E+00 0.612E+00 0.863E+00
   -.555E+02 -.106E+03 -.262E+03   0.568E+02 0.106E+03 0.262E+03   0.282E+00 -.457E+00 0.323E+01
   0.178E+03 0.206E+03 -.257E+03   -.178E+03 -.206E+03 0.256E+03   -.215E+00 0.449E+00 0.833E+00
   0.179E+03 -.124E+03 -.179E+03   -.178E+03 0.123E+03 0.181E+03   0.779E+00 -.398E+00 -.705E+00
   0.111E+03 -.269E+02 0.188E+02   -.116E+03 0.283E+02 -.181E+02   0.498E+01 -.126E+01 -.854E+00
   0.393E+02 -.566E+02 0.851E+02   -.376E+02 0.593E+02 -.897E+02   -.161E+01 -.301E+01 0.426E+01
   0.735E+02 0.567E+02 0.405E+02   -.737E+02 -.606E+02 -.416E+02   0.153E+00 0.487E+01 0.789E+00
   0.632E+02 0.561E+02 -.513E+02   -.626E+02 -.607E+02 0.528E+02   -.605E+00 0.486E+01 -.160E+01
   0.428E+02 -.543E+02 -.836E+02   -.420E+02 0.566E+02 0.869E+02   -.111E+01 -.295E+01 -.376E+01
   0.112E+03 -.127E+02 -.172E+02   -.117E+03 0.134E+02 0.164E+02   0.507E+01 -.415E+00 0.875E+00
   -.198E+02 -.846E+02 -.460E+02   0.232E+02 0.857E+02 0.491E+02   -.388E+01 -.100E+01 -.328E+01
   0.637E+01 -.852E+02 0.620E+02   -.487E+01 0.867E+02 -.662E+02   -.139E+01 -.134E+01 0.475E+01
   0.752E+02 -.882E+02 -.167E+02   -.794E+02 0.911E+02 0.180E+02   0.447E+01 -.256E+01 -.118E+01
   0.726E+02 -.369E+02 0.813E+02   -.752E+02 0.381E+02 -.856E+02   0.296E+01 -.133E+01 0.471E+01
   0.333E+02 -.928E+02 0.696E+02   -.334E+02 0.996E+02 -.696E+02   -.288E+00 -.577E+01 0.528E-01
   0.104E+03 0.256E+02 0.591E+02   -.109E+03 -.278E+02 -.585E+02   0.464E+01 0.287E+01 -.829E+00
   0.213E+02 0.171E+01 0.124E+03   -.203E+02 -.278E+01 -.128E+03   -.178E+01 0.133E+01 0.426E+01
   0.567E+02 0.834E+02 0.855E+01   -.558E+02 -.868E+02 -.442E+01   -.185E+00 0.328E+01 -.430E+01
   0.248E+01 0.575E+02 0.111E+03   0.554E+00 -.592E+02 -.114E+03   -.301E+01 0.144E+01 0.394E+01
   0.944E+02 0.582E+02 0.682E+02   -.980E+02 -.588E+02 -.694E+02   0.432E+01 0.102E+01 0.176E+01
   -.331E+02 0.188E+02 0.955E+02   0.370E+02 -.228E+02 -.965E+02   -.355E+01 0.392E+01 0.146E+01
   0.246E+01 -.586E+02 0.114E+03   -.299E+01 0.601E+02 -.117E+03   0.557E+00 -.217E+01 0.395E+01
   -.211E+02 -.926E+02 0.290E+02   0.237E+02 0.964E+02 -.258E+02   -.235E+01 -.390E+01 -.288E+01
   -.402E+02 -.102E+03 0.556E+02   0.413E+02 0.108E+03 -.547E+02   -.433E+00 -.551E+01 -.706E+00
   -.132E+02 -.247E+02 0.124E+03   0.118E+02 0.245E+02 -.127E+03   0.218E+01 0.366E+00 0.431E+01
   -.973E+02 0.183E+02 0.734E+02   0.102E+03 -.214E+02 -.738E+02   -.444E+01 0.332E+01 0.550E+00
   0.130E+02 -.113E+03 0.423E+01   -.139E+02 0.117E+03 -.462E+00   0.382E+00 -.394E+01 -.366E+01
   0.441E+02 -.167E+02 0.719E+02   -.484E+02 0.140E+02 -.721E+02   0.427E+01 0.302E+01 0.787E+00
   0.482E+01 -.760E+02 0.106E+03   -.444E+01 0.781E+02 -.110E+03   -.322E+00 -.233E+01 0.443E+01
   -.398E+02 0.285E+02 0.125E+03   0.411E+02 -.287E+02 -.130E+03   -.143E+01 0.464E+00 0.490E+01
   -.831E+02 0.600E+02 0.399E+02   0.861E+02 -.635E+02 -.373E+02   -.353E+01 0.298E+01 -.267E+01
   0.287E+02 0.338E+02 0.843E+02   -.336E+02 -.359E+02 -.840E+02   0.514E+01 0.159E+01 0.965E-01
   -.797E+02 -.435E+02 0.793E+02   0.825E+02 0.450E+02 -.836E+02   -.307E+01 -.169E+01 0.440E+01
   -.891E+02 -.499E+02 0.539E+02   0.929E+02 0.503E+02 -.564E+02   -.414E+01 0.552E-01 0.285E+01
   0.266E+01 -.781E+02 0.573E+02   -.603E+01 0.787E+02 -.601E+02   0.389E+01 -.640E+00 0.321E+01
   -.311E+02 -.107E+03 -.256E+02   0.311E+02 0.111E+03 0.285E+02   0.461E-01 -.420E+01 -.318E+01
   -.732E+02 0.295E+02 -.758E+02   0.745E+02 -.337E+02 0.786E+02   -.166E+01 0.417E+01 -.277E+01
   -.920E+02 -.642E+02 -.361E+02   0.955E+02 0.668E+02 0.362E+02   -.393E+01 -.307E+01 0.798E-01
   -.548E+01 -.755E+02 -.717E+02   0.239E+01 0.777E+02 0.739E+02   0.361E+01 -.272E+01 -.221E+01
   -.703E+02 0.139E+02 0.792E+02   0.703E+02 -.143E+02 -.843E+02   0.138E-01 0.482E+00 0.519E+01
   -.588E+02 0.743E+02 -.146E+02   0.578E+02 -.781E+02 0.160E+02   0.169E+01 0.435E+01 -.158E+01
   -.116E+03 0.641E-01 -.958E+01   0.121E+03 0.687E+00 0.110E+02   -.495E+01 -.745E+00 -.149E+01
   -.717E+02 -.269E+02 -.897E+02   0.743E+02 0.277E+02 0.946E+02   -.298E+01 -.960E+00 -.487E+01
   0.278E+02 0.139E+02 -.119E+03   -.300E+02 -.133E+02 0.122E+03   0.283E+01 -.115E+01 -.371E+01
   -.499E+02 0.800E+02 -.897E+02   0.528E+02 -.834E+02 0.911E+02   -.306E+01 0.346E+01 -.225E+01
   0.215E+02 0.509E+02 -.377E+02   -.256E+02 -.538E+02 0.330E+02   0.368E+01 0.200E+01 0.401E+01
   -.255E+02 -.960E+02 -.820E+02   0.274E+02 0.984E+02 0.835E+02   -.252E+01 -.316E+01 -.237E+01
   0.360E+02 -.299E+02 -.107E+03   -.395E+02 0.288E+02 0.111E+03   0.321E+01 0.165E+01 -.375E+01
   0.241E+02 -.101E+03 -.521E+01   -.270E+02 0.104E+03 0.553E+00   0.202E+01 -.317E+01 0.421E+01
   -.193E+02 0.200E+02 -.126E+03   0.176E+02 -.215E+02 0.130E+03   0.165E+01 0.192E+01 -.437E+01
   -.507E+02 -.752E+02 -.879E+02   0.528E+02 0.811E+02 0.892E+02   -.125E+01 -.545E+01 -.120E+01
   -.925E+02 0.490E+02 -.582E+02   0.970E+02 -.523E+02 0.569E+02   -.402E+01 0.336E+01 0.151E+01
   -.651E+02 0.228E+02 -.772E+02   0.666E+02 -.185E+02 0.832E+02   -.131E+01 -.351E+01 -.491E+01
   -.959E+02 0.591E+02 -.526E+02   0.999E+02 -.600E+02 0.559E+02   -.427E+01 0.106E+01 -.323E+01
   -.729E+02 0.100E+03 0.247E+02   0.766E+02 -.105E+03 -.258E+02   -.330E+01 0.443E+01 0.131E+01
   -.102E+02 0.936E+02 0.876E+02   0.908E+01 -.971E+02 -.925E+02   0.874E+00 0.345E+01 0.449E+01
   0.197E+02 0.562E+02 0.102E+03   -.247E+02 -.550E+02 -.106E+03   0.441E+01 -.622E+00 0.407E+01
   0.370E+02 0.102E+03 -.809E+02   -.391E+02 -.104E+03 0.829E+02   0.281E+01 0.320E+01 -.217E+01
   -.478E+02 0.101E+03 -.469E+02   0.515E+02 -.102E+03 0.464E+02   -.403E+01 0.285E+01 0.822E+00
   -.602E+01 0.190E+02 -.997E+02   0.713E+01 -.142E+02 0.104E+03   -.780E+00 -.421E+01 -.368E+01
   0.588E+02 0.121E+03 0.806E+01   -.618E+02 -.124E+03 -.751E+01   0.356E+01 0.334E+01 -.451E+00
   -.348E+02 0.119E+03 -.685E+01   0.402E+02 -.122E+03 0.812E+01   -.465E+01 0.277E+01 -.146E+01
   0.230E+02 0.801E+02 0.888E+02   -.230E+02 -.786E+02 -.942E+02   0.853E-01 -.160E+01 0.533E+01
   0.699E+02 0.837E+02 -.736E+02   -.715E+02 -.854E+02 0.785E+02   0.141E+01 0.210E+01 -.476E+01
   0.859E+02 0.936E+02 0.361E+02   -.879E+02 -.962E+02 -.395E+02   0.235E+01 0.302E+01 0.352E+01
   0.823E+02 0.164E+02 -.133E+01   -.850E+02 -.110E+02 0.764E+00   0.167E+01 -.514E+01 0.112E+01
   0.970E+02 0.966E+01 -.766E+02   -.102E+03 -.114E+02 0.771E+02   0.496E+01 0.231E+01 -.337E+00
   0.206E+02 -.102E+03 -.583E+02   -.206E+02 0.108E+03 0.574E+02   -.566E+00 -.537E+01 0.102E+01
   0.686E+01 -.185E+02 -.124E+03   -.532E+01 0.179E+02 0.127E+03   -.241E+01 0.537E+00 -.425E+01
   -.159E+02 -.985E+02 -.508E+02   0.182E+02 0.104E+03 0.498E+02   -.184E+01 -.526E+01 0.275E+00
   -.272E+02 0.328E+02 -.613E+02   0.307E+02 -.362E+02 0.599E+02   -.329E+01 0.406E+01 0.688E+00
   -.458E+01 -.101E+02 -.125E+03   0.476E+01 0.987E+01 0.128E+03   0.969E-01 0.291E+00 -.417E+01
   -.643E+01 0.734E+02 -.718E+02   0.110E+02 -.773E+02 0.716E+02   -.452E+01 0.322E+01 -.223E+00
   0.993E+02 0.614E+02 -.200E+02   -.104E+03 -.635E+02 0.166E+02   0.437E+01 0.135E+01 0.318E+01
   0.555E+02 0.403E+02 -.115E+03   -.570E+02 -.403E+02 0.119E+03   0.178E+01 -.289E-01 -.480E+01
   0.649E+02 -.489E+02 -.870E+02   -.672E+02 0.507E+02 0.920E+02   0.225E+01 -.186E+01 -.500E+01
   0.849E+02 0.250E+03 0.492E+03   -.871E+02 -.260E+03 -.528E+03   0.182E+01 0.955E+01 0.334E+02
   0.174E+02 -.347E+03 -.248E+02   -.205E+02 0.354E+03 0.255E+02   0.174E+01 -.721E+01 -.107E+01
   0.628E+02 0.117E+03 -.164E+02   -.649E+02 -.121E+03 0.923E+01   0.176E+01 -.155E+00 0.744E+00
 -----------------------------------------------------------------------------------------------
   -.726E+01 -.103E+02 -.464E+02   0.526E-12 -.625E-12 0.176E-12   0.669E+01 0.895E+01 0.405E+02
 
 
 POSITION                                       TOTAL-FORCE (eV/Angst)
 -----------------------------------------------------------------------------------
      7.57863     17.18359     13.74810        -1.249954     -1.265203     -0.141920
      8.37841     17.43434     15.00475        -0.163986      0.687313     -0.144381
      7.51322     17.09556     16.18347        -0.511702     -0.236394      2.017997
      8.71229     18.92817     15.02855         0.192438      0.288358     -0.361215
      9.65249     16.65636     15.01369        -0.798086      0.236295     -1.413171
     10.14156     16.24377     13.81462         1.622293     -0.992906     -0.700236
     11.35205     15.49761     13.72029        -1.746653      0.892922      0.393293
     11.74618     15.06841     12.37431        -2.690780      0.780254     -2.630192
     10.67780     15.68734     11.38088         1.542080     -1.927715     -1.625647
     11.51169     13.59664     12.08371        -0.696521     -1.445403     -0.788634
     12.99000     15.64960     11.80759         2.037398      1.117209     -1.995198
     12.06069     15.17818     14.87278        -0.430936      0.327776      0.366534
     13.37421     14.56992     14.78021         3.765813      4.294092      1.630984
     16.37672     14.76884     14.89578        -2.363138      1.503756      0.491508
     17.68920     15.40749     15.03312        -1.293005     -0.830835      1.036793
     18.35036     15.79534     13.90417         2.705935      1.195252      0.322328
     17.88466     15.73011     12.52227         0.968538      0.677621     -3.449927
     18.95829     16.35078     11.57257        -1.755787     -0.326565     -1.846360
     16.66581     16.56412     12.20154        -1.064095      0.440379     -0.578334
     17.79091     14.34216     11.92388        -0.305986     -1.104889     -0.146240
     19.63671     16.36402     14.06681        -0.668260     -0.355053     -1.139923
     20.21281     16.53180     15.27632        -0.188925      0.116964      0.781521
     21.58075     17.14426     15.39004        -0.580200     -0.215834      0.555928
     21.61903     18.44077     14.63185         0.361833      1.077697     -1.613825
     21.94258     17.44184     16.82038         0.797302      1.309339      0.919099
     22.54635     16.11403     14.87880         0.331303     -1.732589     -0.515824
     19.51341     16.13314     16.38616        -0.203379     -0.156186     -0.088080
     18.22537     15.55667     16.32428         2.678420      1.162773     -2.548873
     17.59925     15.35501     17.58876         1.387433      1.000239      4.360839
     16.95856     14.10284     18.02697        -1.759085     -1.217415      1.588006
     16.75110     16.54867     18.00147         0.251284      1.568309      1.571632
     18.74419     15.44202     18.67495        -0.883672     -1.420612      1.140701
     16.04916     13.51118     14.64895         0.536541     -0.504521      1.153427
     16.99575     12.40836     14.47667        -1.001238     -0.382145     -1.161940
     18.06452     12.13833     15.27425         1.401337     -0.919779      0.318863
     18.91787     11.06022     15.00328         0.685061      0.689789      1.421279
     18.72236     10.23637     13.93896         0.267227     -0.796629     -0.508798
     17.65966     10.48170     13.11925        -0.811922      0.846955      0.064572
     16.81503     11.56228     13.40019         0.215328     -1.717198     -1.748234
     13.74994     11.70436     15.28177         0.067806     -2.234427      0.140143
     14.45281     11.38923     16.57273        -0.240341     -2.341884      1.085138
     14.03540     10.45969     14.39279        -0.902769     -0.552141     -0.474261
     12.22689     11.66771     15.42411        -0.463390      0.423461     -0.688612
     11.55277     15.59824     16.11232        -1.658838      1.097112     -1.659847
     12.08904     15.22307     17.40027        -2.027681     -0.422700      3.882261
     11.25605     16.00388     18.49358         1.581334     -0.110067      0.929299
     13.47260     15.45779     17.82283         1.686939     -0.770998      3.516770
     11.69131     13.77564     17.81934        -0.165254      0.525433      0.559183
     10.33487     16.34347     16.12322         1.608431     -0.799200      1.445095
      6.52573     17.46526     13.93754         0.431859      0.061905     -0.223790
      7.91980     17.77073     12.89486         0.076412     -0.390789     -0.180279
      7.55052     16.07225     13.55272         0.012424      1.132238     -0.231389
      7.65020     16.04573     16.52338        -0.047740      0.563357     -0.166253
      7.77415     17.77033     17.04962        -0.388257     -0.798974     -0.598377
      6.42669     17.20265     15.97923         0.659683      0.186317      0.109718
      9.53465     19.14497     15.74443        -0.637714      0.089113     -0.353233
      9.01814     19.21912     13.99771         0.055420      0.111282      0.783518
      7.78416     19.46636     15.27862         0.449528      0.195167      0.008936
      9.58128     16.49771     12.91613         0.487481     -0.197301      0.645425
     10.70527     16.75681     11.38516        -0.433333      0.674697      0.029093
      9.74024     15.16007     11.54779        -0.372068      0.766594     -0.251713
     11.09043     15.36748     10.36936        -0.924019      0.325969      1.003689
     11.56301     12.94171     12.95949         0.616283      0.007119     -0.410468
     12.16243     13.28970     11.23320        -0.133318     -0.171223      1.021056
     10.47078     13.39410     11.67690         0.909837      0.472161      0.611650
     13.71117     14.87803     11.51869         0.174577      0.143247      0.568872
     12.81262     16.19929     10.80621         0.063785     -0.785687      1.464867
     13.46241     16.42791     12.41213         0.059364     -0.345807      0.211560
     19.07406     17.41540     11.72839         0.653488      0.199977      0.174076
     18.44799     16.26586     10.56198         0.840719      0.210951      0.969364
     19.84085     15.72738     11.49008         0.508748      0.391364      0.218318
     16.57353     17.35692     12.94976        -0.532074     -0.082556     -0.082864
     15.76721     15.93470     12.06829         0.141582      0.459142      0.634130
     16.76011     17.07961     11.21117         0.033320     -0.380882      0.806939
     18.10756     14.27798     10.86000        -0.196025      0.344933      0.610920
     18.50872     13.71819     12.47687        -0.672221     -0.396520     -0.188241
     16.74300     14.00376     11.92446         0.517683     -0.502790      0.416496
     20.22459     16.69080     13.20844        -0.469425     -0.260013      0.314635
     22.54669     18.43916     14.00543        -0.613656      0.490042      0.488221
     20.76245     18.56753     13.92373         0.712508     -0.118140      0.566411
     21.61331     19.31390     15.30735         0.090689     -0.299825     -0.382734
     22.26475     16.56038     17.40016        -0.469778      0.291365     -0.037000
     22.83096     18.12804     16.79362        -0.591600     -0.577640      0.160754
     21.13129     18.03308     17.31968         0.691534     -0.663496     -0.128291
     22.53606     16.02887     13.77621         0.004383      0.113191      0.382435
     22.17451     15.11524     15.25687         0.836696      0.838194     -0.294762
     23.59058     16.28509     15.20102        -0.434994     -0.027974     -0.093209
     20.05164     16.30630     17.30910        -0.569641     -0.179171     -0.275579
     16.29526     14.38742     18.90475         0.708125     -0.561133     -0.938772
     17.64353     13.34921     18.47954        -0.372885      0.251169     -0.997895
     16.28752     13.71970     17.28973        -0.260735     -0.855834     -0.383214
     17.38874     17.31300     18.56846        -0.731260     -0.841062     -0.946076
     16.04870     16.19658     18.78343        -0.130287      0.630794     -0.837704
     16.33866     17.13019     17.19163        -0.746895     -0.145214     -0.243683
     18.35653     15.02059     19.63530         0.128226      0.422316     -0.609447
     19.00469     16.46395     18.88334         0.698656      0.166813      0.000072
     19.55995     14.78120     18.37436         0.182323      0.255819      0.286768
     18.28240     12.73799     16.11211         0.169270      0.618470      0.860226
     19.77355     10.85730     15.65964        -0.380591      0.291061     -0.112073
     19.36130      9.39509     13.70258         0.228560      0.021355      0.267446
     17.48984      9.83619     12.27046        -0.243613      0.121972     -0.161531
     16.03105     11.67703     12.67160        -0.351335      0.567636      0.287500
     13.77823     10.63792     17.09474         0.792623      0.845235     -0.195075
     15.37960     10.77506     16.38398        -0.556728      1.226740      0.364056
     14.60228     12.20404     17.25796         0.288438      0.398672      0.295117
     13.20781      9.70593     14.52207         0.755132      0.697023      0.067285
     14.93955      9.94319     14.67969         0.474945      0.048584     -0.257602
     14.02205     10.74444     13.33507         0.153590     -0.158397      0.214677
     11.94531     11.25382     16.39843        -0.107858      0.517832     -0.144552
     11.73920     11.01984     14.66407         0.472832      0.531560      0.334533
     11.88773     12.68059     15.22647        -0.891728     -0.071213      0.603552
     10.25548     15.56954     18.55390        -0.014706      0.677824      0.161750
     11.33653     17.06966     18.29002        -0.607318      0.215753      0.157042
     11.80580     15.85780     19.46985        -0.996609     -0.049406     -0.884950
     13.83529     16.47538     17.73384         0.392264     -0.036907     -0.730145
     14.17237     14.62689     17.63440         0.047197      0.871313     -0.669041
     13.42984     15.36978     19.00280         0.287558      0.048066     -2.002916
     12.56624     13.13769     17.83566        -0.203634     -0.556550     -0.513626
     10.84851     13.49177     17.19631         0.241043     -0.710660     -0.083717
     11.31095     13.79378     18.86593         0.361735     -0.102623     -0.618167
      9.91963     16.68546     17.05958         0.126692     -0.145160     -0.264553
     14.24107     12.80954     12.95223        -0.024226      1.515034      2.539949
     14.75879     15.78533     15.04075        -1.304760     -1.180612     -0.405623
     14.30118     13.23379     14.48192        -0.192673     -4.895820     -6.466035
 -----------------------------------------------------------------------------------
    total drift:                               -0.033440     -0.078334     -0.031355


--------------------------------------------------------------------------------------------------------



  FREE ENERGIE OF THE ION-ELECTRON SYSTEM (eV)
  ---------------------------------------------------
  free  energy   TOTEN  =      -870.22825228 eV

  energy  without entropy=     -870.22825228  energy(sigma->0) =     -870.22825228
 


--------------------------------------------------------------------------------------------------------


    POTLOK:  cpu time    3.8156: real time    3.8219


--------------------------------------------------------------------------------------------------------


 stress matrix after NEB project (eV)
     -2.92220      0.12376     -0.00117
      0.12376     -1.97998     -0.11494
     -0.00117     -0.11494     -2.04505
  FORCES: max atom, RMS     8.112692    1.840424
  FORCE total and by dimension   20.494092    6.466035
  Stress total and by dimension    4.086426    2.922204
     LOOP+:  cpu time12576.6694: real time12613.1146
    4ORBIT:  cpu time    0.0000: real time    0.0000

 total amount of memory used by VASP on root node  2870280. kBytes
========================================================================

   base      :      30000. kBytes
   nonl-proj :     767612. kBytes
   fftplans  :     338850. kBytes
   grid      :     876072. kBytes
   one-center:        190. kBytes
   HF        :         18. kBytes
   nonlr-proj:       1233. kBytes
   wavefun   :     856305. kBytes
 
  
  
 General timing and accounting informations for this job:
 ========================================================
  
                  Total CPU time used (sec):    12634.155
                            User time (sec):    12559.590
                          System time (sec):       74.565
                         Elapsed time (sec):    12676.231
  
                   Maximum memory used (kb):     3741964.
                   Average memory used (kb):           0.
  
                          Minor page faults:       942859
                          Major page faults:          274
                 Voluntary context switches:         3360
