Molecule_POSCAR_05                      
   1.00000000000000     
    30.0000000000000000    0.0000000000000000    0.0000000000000000
     0.0000000000000000   30.0000000000000000    0.0000000000000000
     0.0000000000000000    0.0000000000000000   30.0000000000000000
   C    H    S 
    42    42     2
Direct
  0.8844214333333298  0.5241505333333336  0.4839309666666693
  0.8735300000000024  0.4876868333333348  0.5167503666666633
  0.8243437000000000  0.4768009333333367  0.5174241333333356
  0.7985664333333347  0.5175694333333354  0.5303188333333324
  0.7488862333333302  0.5092472999999984  0.5317474333333365
  0.7325005333333365  0.4945404666666633  0.4864559666666679
  0.6830313333333322  0.4861909333333330  0.4874984333333359
  0.6626124000000004  0.4471113000000031  0.4971342999999990
  0.6182371000000018  0.4447458666666648  0.4967374000000007
  0.5947104999999979  0.4850977999999984  0.4857010666666639
  0.5467390666666674  0.4917373999999981  0.4867454666666688
  0.5212830333333329  0.4576143000000030  0.4687785333333352
  0.5385936333333348  0.4228251333333333  0.4444463999999968
  0.5123646333333340  0.3900681666666657  0.4246025333333350
  0.5305766999999975  0.3555078666666702  0.4004886999999968
  0.5034373000000016  0.3229980333333344  0.3808738666666684
  0.4581852333333316  0.3252432333333317  0.3854952333333301
  0.4397842999999995  0.3603241666666648  0.4099666333333332
  0.4668771666666700  0.3919492333333352  0.4289981333333301
  0.4490389666666701  0.4272072333333341  0.4535431999999986
  0.4750437000000005  0.4597848333333303  0.4733973666666671
  0.4544261333333353  0.4946648666666675  0.4951264999999978
  0.4065598333333327  0.4945412666666655  0.5040284333333318
  0.3799325666666675  0.4620115666666678  0.5193182666666658
  0.3369988666666686  0.4695848333333359  0.5276916333333332
  0.3213894333333300  0.5131007000000025  0.5197490999999985
  0.2755876000000015  0.5307920999999993  0.5261609333333297
  0.2490335000000030  0.5250325666666669  0.4843209333333363
  0.2023424333333352  0.5422135333333316  0.4881276666666636
  0.1767244666666699  0.5185784333333316  0.5244366333333303
  0.1293916666666632  0.5362475666666668  0.5279445999999979
  0.1045643666666649  0.5296706333333319  0.4848510333333351
  0.4810371000000018  0.5278964666666681  0.5123208666666699
  0.4632539999999992  0.5640838333333349  0.5355144333333328
  0.4892635333333359  0.5974471333333327  0.5537186999999975
  0.4678434666666647  0.6315351333333368  0.5758543666666682
  0.4939182333333321  0.6650619999999989  0.5941453000000010
  0.5397503666666665  0.6635742666666644  0.5898638000000034
  0.5598140999999970  0.6285736666666679  0.5672783333333342
  0.5343912333333307  0.5951506333333327  0.5490035999999989
  0.5546026000000026  0.5599520999999967  0.5262900333333320
  0.5273329999999987  0.5276983333333334  0.5088140000000010
  0.8759985666666665  0.5579584666666690  0.4972475666666654
  0.8703228333333328  0.5185578333333325  0.4505074666666644
  0.9219130666666686  0.5244840666666661  0.4809679000000031
  0.8941149333333342  0.4582425999999984  0.5081266666666693
  0.8854590666666695  0.4992989666666645  0.5500307666666657
  0.8183353000000011  0.4506827333333305  0.5421349333333367
  0.8153886999999997  0.4632445666666669  0.4844415000000026
  0.8088680666666690  0.5270559666666657  0.5644344999999973
  0.8059616666666685  0.5463246666666635  0.5080442666666656
  0.7330691666666667  0.5424520333333334  0.5382677999999999
  0.7406530333333308  0.4858815999999990  0.5582501000000022
  0.7477398333333340  0.4617862333333349  0.4788284333333337
  0.7417846333333316  0.5173092333333358  0.4597937333333348
  0.6828692333333350  0.4168007666666682  0.5054202666666683
  0.5983572666666674  0.4138763999999995  0.5056444333333303
  0.5734506333333300  0.4198754333333312  0.4378758000000005
  0.5660989000000001  0.3526488333333333  0.3961372999999995
  0.5187344333333357  0.2962778333333347  0.3621473666666688
  0.4379727666666682  0.2998656666666690  0.3701137999999986
  0.4043817000000018  0.3622245999999976  0.4136779666666683
  0.4137102999999982  0.4292311999999967  0.4555958333333336
  0.3947877333333309  0.4279415333333318  0.5262617333333353
  0.3122918666666692  0.4440008333333338  0.5405756999999980
  0.2601526333333339  0.5128697666666682  0.5550513000000024
  0.2762850000000014  0.5665903000000014  0.5362167333333332
  0.2466560000000015  0.4881643000000011  0.4777983666666685
  0.2667060666666643  0.5419908666666657  0.4569065333333313
  0.1837623666666701  0.5365922000000012  0.4566854999999990
  0.2015006666666679  0.5790584666666660  0.4954207666666690
  0.1734447333333335  0.4830054000000032  0.5139998000000006
  0.1929406333333361  0.5202371999999968  0.5573034000000021
  0.1122600666666642  0.5157264999999995  0.5539677666666663
  0.1287082666666635  0.5718687999999972  0.5369454333333366
  0.0712039333333365  0.5149998333333343  0.4908275333333307
  0.1223271333333358  0.5072683666666649  0.4622324999999989
  0.1000897333333342  0.5620538000000010  0.4667575666666650
  0.4276043999999999  0.5649710333333360  0.5396292666666653
  0.4321142333333299  0.6337720000000004  0.5798389666666637
  0.4769594666666634  0.6916063999999977  0.6114024999999970
  0.5599016333333324  0.6900193333333320  0.6043227333333334
  0.5952568666666664  0.6265735666666643  0.5634545666666639
  0.5901188333333351  0.5583763333333351  0.5231397666666666
  0.3692872666666673  0.5412744333333350  0.5005203333333341
  0.6395344000000023  0.5211462999999981  0.4774584666666684
 
  0.00000000E+00  0.00000000E+00  0.00000000E+00
  0.00000000E+00  0.00000000E+00  0.00000000E+00
  0.00000000E+00  0.00000000E+00  0.00000000E+00
  0.00000000E+00  0.00000000E+00  0.00000000E+00
  0.00000000E+00  0.00000000E+00  0.00000000E+00
  0.00000000E+00  0.00000000E+00  0.00000000E+00
  0.00000000E+00  0.00000000E+00  0.00000000E+00
  0.00000000E+00  0.00000000E+00  0.00000000E+00
  0.00000000E+00  0.00000000E+00  0.00000000E+00
  0.00000000E+00  0.00000000E+00  0.00000000E+00
  0.00000000E+00  0.00000000E+00  0.00000000E+00
  0.00000000E+00  0.00000000E+00  0.00000000E+00
  0.00000000E+00  0.00000000E+00  0.00000000E+00
  0.00000000E+00  0.00000000E+00  0.00000000E+00
  0.00000000E+00  0.00000000E+00  0.00000000E+00
  0.00000000E+00  0.00000000E+00  0.00000000E+00
  0.00000000E+00  0.00000000E+00  0.00000000E+00
  0.00000000E+00  0.00000000E+00  0.00000000E+00
  0.00000000E+00  0.00000000E+00  0.00000000E+00
  0.00000000E+00  0.00000000E+00  0.00000000E+00
  0.00000000E+00  0.00000000E+00  0.00000000E+00
  0.00000000E+00  0.00000000E+00  0.00000000E+00
  0.00000000E+00  0.00000000E+00  0.00000000E+00
  0.00000000E+00  0.00000000E+00  0.00000000E+00
  0.00000000E+00  0.00000000E+00  0.00000000E+00
  0.00000000E+00  0.00000000E+00  0.00000000E+00
  0.00000000E+00  0.00000000E+00  0.00000000E+00
  0.00000000E+00  0.00000000E+00  0.00000000E+00
  0.00000000E+00  0.00000000E+00  0.00000000E+00
  0.00000000E+00  0.00000000E+00  0.00000000E+00
  0.00000000E+00  0.00000000E+00  0.00000000E+00
  0.00000000E+00  0.00000000E+00  0.00000000E+00
  0.00000000E+00  0.00000000E+00  0.00000000E+00
  0.00000000E+00  0.00000000E+00  0.00000000E+00
  0.00000000E+00  0.00000000E+00  0.00000000E+00
  0.00000000E+00  0.00000000E+00  0.00000000E+00
  0.00000000E+00  0.00000000E+00  0.00000000E+00
  0.00000000E+00  0.00000000E+00  0.00000000E+00
  0.00000000E+00  0.00000000E+00  0.00000000E+00
  0.00000000E+00  0.00000000E+00  0.00000000E+00
  0.00000000E+00  0.00000000E+00  0.00000000E+00
  0.00000000E+00  0.00000000E+00  0.00000000E+00
  0.00000000E+00  0.00000000E+00  0.00000000E+00
  0.00000000E+00  0.00000000E+00  0.00000000E+00
  0.00000000E+00  0.00000000E+00  0.00000000E+00
  0.00000000E+00  0.00000000E+00  0.00000000E+00
  0.00000000E+00  0.00000000E+00  0.00000000E+00
  0.00000000E+00  0.00000000E+00  0.00000000E+00
  0.00000000E+00  0.00000000E+00  0.00000000E+00
  0.00000000E+00  0.00000000E+00  0.00000000E+00
  0.00000000E+00  0.00000000E+00  0.00000000E+00
  0.00000000E+00  0.00000000E+00  0.00000000E+00
  0.00000000E+00  0.00000000E+00  0.00000000E+00
  0.00000000E+00  0.00000000E+00  0.00000000E+00
  0.00000000E+00  0.00000000E+00  0.00000000E+00
  0.00000000E+00  0.00000000E+00  0.00000000E+00
  0.00000000E+00  0.00000000E+00  0.00000000E+00
  0.00000000E+00  0.00000000E+00  0.00000000E+00
  0.00000000E+00  0.00000000E+00  0.00000000E+00
  0.00000000E+00  0.00000000E+00  0.00000000E+00
  0.00000000E+00  0.00000000E+00  0.00000000E+00
  0.00000000E+00  0.00000000E+00  0.00000000E+00
  0.00000000E+00  0.00000000E+00  0.00000000E+00
  0.00000000E+00  0.00000000E+00  0.00000000E+00
  0.00000000E+00  0.00000000E+00  0.00000000E+00
  0.00000000E+00  0.00000000E+00  0.00000000E+00
  0.00000000E+00  0.00000000E+00  0.00000000E+00
  0.00000000E+00  0.00000000E+00  0.00000000E+00
  0.00000000E+00  0.00000000E+00  0.00000000E+00
  0.00000000E+00  0.00000000E+00  0.00000000E+00
  0.00000000E+00  0.00000000E+00  0.00000000E+00
  0.00000000E+00  0.00000000E+00  0.00000000E+00
  0.00000000E+00  0.00000000E+00  0.00000000E+00
  0.00000000E+00  0.00000000E+00  0.00000000E+00
  0.00000000E+00  0.00000000E+00  0.00000000E+00
  0.00000000E+00  0.00000000E+00  0.00000000E+00
  0.00000000E+00  0.00000000E+00  0.00000000E+00
  0.00000000E+00  0.00000000E+00  0.00000000E+00
  0.00000000E+00  0.00000000E+00  0.00000000E+00
  0.00000000E+00  0.00000000E+00  0.00000000E+00
  0.00000000E+00  0.00000000E+00  0.00000000E+00
  0.00000000E+00  0.00000000E+00  0.00000000E+00
  0.00000000E+00  0.00000000E+00  0.00000000E+00
  0.00000000E+00  0.00000000E+00  0.00000000E+00
  0.00000000E+00  0.00000000E+00  0.00000000E+00
  0.00000000E+00  0.00000000E+00  0.00000000E+00
