       N       E                     dE             d eps       ncg     rms          ort
SDA:   1    -0.650347446951E+03   -0.65035E+03    0.00000E+00   156   0.121E+01 0.000E+00
CGA:   2    -0.650858168083E+03   -0.51072E+00   -0.50974E+00   156   0.293E+00 0.553E-02
CGA:   3    -0.650942095255E+03   -0.83927E-01   -0.83841E-01   156   0.850E-01 0.701E-03
CGA:   4    -0.650965092515E+03   -0.22997E-01   -0.22985E-01   156   0.272E-01 0.124E-03
CGA:   5    -0.650972985963E+03   -0.78934E-02   -0.78868E-02   156   0.117E-01 0.574E-04
CGA:   6    -0.650976313533E+03   -0.33276E-02   -0.33252E-02   156   0.453E-02 0.287E-04
CGA:   7    -0.650977761143E+03   -0.14476E-02   -0.14461E-02   156   0.189E-02 0.146E-04
CGA:   8    -0.650978264998E+03   -0.50386E-03   -0.50344E-03   156   0.667E-03 0.145E-04
CGA:   9    -0.650978438553E+03   -0.17355E-03   -0.17345E-03   156   0.193E-03 0.952E-05
CGA:  10    -0.650978493124E+03   -0.54572E-04   -0.54647E-04   156   0.726E-04 0.193E-05
CGA:  11    -0.650978512403E+03   -0.19279E-04   -0.19411E-04   156   0.300E-04 0.842E-06
CGA:  12    -0.650978520430E+03   -0.80272E-05   -0.81899E-05   156   0.141E-04-0.116E-06
CGA:  13    -0.650978524142E+03   -0.37120E-05   -0.39181E-05   156   0.755E-05-0.105E-05
CGA:  14    -0.650978525817E+03   -0.16749E-05   -0.18537E-05   156   0.411E-05-0.985E-06
CGA:  15    -0.650978526598E+03   -0.78091E-06   -0.95645E-06   156   0.191E-05-0.790E-06
   1 F= -.65247309E+03 E0= -.65247309E+03  d E =-.971904E-14
