 vasp.5.4.1 24Jun15 (build Feb 10 2025 21:25:14) gamma-only                     
  
 executed on           IFC91_ompi date 2026.02.18  15:55:20
 running on    4 total cores
 distrk:  each k-point on    4 cores,    1 groups
 distr:  one band on NCORES_PER_BAND=   1 cores,    4 groups


--------------------------------------------------------------------------------------------------------


 INCAR:
 POTCAR:    PAW_PBE C 08Apr2002                   
 POTCAR:    PAW_PBE H 15Jun2001                   
 POTCAR:    PAW_PBE S 06Sep2000                   
 POTCAR:    PAW_PBE C 08Apr2002                   
   VRHFIN =C: s2p2                                                              
   LEXCH  = PE                                                                  
   EATOM  =   147.1560 eV,   10.8157 Ry                                         
                                                                                
   TITEL  = PAW_PBE C 08Apr2002                                                 
   LULTRA =        F    use ultrasoft PP ?                                      
   IUNSCR =        1    unscreen: 0-lin 1-nonlin 2-no                           
   RPACOR =    1.200    partial core radius                                     
   POMASS =   12.011; ZVAL   =    4.000    mass and valenz                      
   RCORE  =    1.500    outmost cutoff radius                                   
   RWIGS  =    1.630; RWIGS  =    0.863    wigner-seitz radius (au A)           
   ENMAX  =  400.000; ENMIN  =  300.000 eV                                      
   ICORE  =        2    local potential                                         
   LCOR   =        T    correct aug charges                                     
   LPAW   =        T    paw PP                                                  
   EAUG   =  644.873                                                            
   DEXC   =    0.000                                                            
   RMAX   =    1.529    core radius for proj-oper                               
   RAUG   =    1.300    factor for augmentation sphere                          
   RDEP   =    1.501    radius for radial grids                                 
   RDEPT  =    1.300    core radius for aug-charge                              
                                                                                
   Atomic configuration                                                         
    4 entries                                                                   
     n  l   j            E        occ.                                          
     1  0  0.50      -273.3789   2.0000                                         
     2  0  0.50       -13.7508   2.0000                                         
     2  1  0.50        -5.2854   2.0000                                         
     3  2  1.50        -5.4423   0.0000                                         
   Description                                                                  
     l       E           TYP  RCUT    TYP  RCUT                                 
     0    -13.7508458     23  1.200                                             
     0     -8.2022199     23  1.200                                             
     1     -5.2854383     23  1.500                                             
     1     34.0145650     23  1.500                                             
     2     -5.4423304      7  1.500                                             
  local pseudopotential read in
  partial core-charges read in
  partial kinetic energy density read in
  atomic valenz-charges read in
  non local Contribution for L=           0  read in
    real space projection operators read in
  non local Contribution for L=           0  read in
    real space projection operators read in
  non local Contribution for L=           1  read in
    real space projection operators read in
  non local Contribution for L=           1  read in
    real space projection operators read in
    PAW grid and wavefunctions read in
 
   number of l-projection  operators is LMAX  =           4
   number of lm-projection operators is LMMAX =           8
 
 POTCAR:    PAW_PBE H 15Jun2001                   
   VRHFIN =H: ultrasoft test                                                    
   LEXCH  = PE                                                                  
   EATOM  =    12.4884 eV,    0.9179 Ry                                         
                                                                                
   TITEL  = PAW_PBE H 15Jun2001                                                 
   LULTRA =        F    use ultrasoft PP ?                                      
   IUNSCR =        0    unscreen: 0-lin 1-nonlin 2-no                           
   RPACOR =    0.000    partial core radius                                     
   POMASS =    1.000; ZVAL   =    1.000    mass and valenz                      
   RCORE  =    1.100    outmost cutoff radius                                   
   RWIGS  =    0.700; RWIGS  =    0.370    wigner-seitz radius (au A)           
   ENMAX  =  250.000; ENMIN  =  200.000 eV                                      
   RCLOC  =    0.701    cutoff for local pot                                    
   LCOR   =        T    correct aug charges                                     
   LPAW   =        T    paw PP                                                  
   EAUG   =  400.000                                                            
   RMAX   =    1.123    core radius for proj-oper                               
   RAUG   =    1.200    factor for augmentation sphere                          
   RDEP   =    1.112    radius for radial grids                                 
   RDEPT  =    0.926    core radius for aug-charge                              
                                                                                
   Atomic configuration                                                         
    2 entries                                                                   
     n  l   j            E        occ.                                          
     1  0  0.50        -6.4927   1.0000                                         
     2  1  0.50        -3.4015   0.0000                                         
   Description                                                                  
     l       E           TYP  RCUT    TYP  RCUT                                 
     0     -6.4927494     23  1.100                                             
     0      6.8029130     23  1.100                                             
     1     -4.0817478     23  1.100                                             
  local pseudopotential read in
  atomic valenz-charges read in
  non local Contribution for L=           0  read in
    real space projection operators read in
  non local Contribution for L=           0  read in
    real space projection operators read in
  non local Contribution for L=           1  read in
    real space projection operators read in
    PAW grid and wavefunctions read in
 
   number of l-projection  operators is LMAX  =           3
   number of lm-projection operators is LMMAX =           5
 
 POTCAR:    PAW_PBE S 06Sep2000                   
   VRHFIN =S : s2p4                                                             
   LEXCH  = PE                                                                  
   EATOM  =   276.8230 eV,   20.3459 Ry                                         
                                                                                
   TITEL  = PAW_PBE S 06Sep2000                                                 
   LULTRA =        F    use ultrasoft PP ?                                      
   IUNSCR =        1    unscreen: 0-lin 1-nonlin 2-no                           
   RPACOR =    1.500    partial core radius                                     
   POMASS =   32.066; ZVAL   =    6.000    mass and valenz                      
   RCORE  =    1.900    outmost cutoff radius                                   
   RWIGS  =    2.200; RWIGS  =    1.164    wigner-seitz radius (au A)           
   ENMAX  =  258.689; ENMIN  =  194.016 eV                                      
   ICORE  =        2    local potential                                         
   LCOR   =        T    correct aug charges                                     
   LPAW   =        T    paw PP                                                  
   EAUG   =  335.092                                                            
   DEXC   =    0.000                                                            
   RMAX   =    1.942    core radius for proj-oper                               
   RAUG   =    1.300    factor for augmentation sphere                          
   RDEP   =    1.954    radius for radial grids                                 
   RDEPT  =    1.744    core radius for aug-charge                              
                                                                                
   Atomic configuration                                                         
    6 entries                                                                   
     n  l   j            E        occ.                                          
     1  0  0.50     -2405.8406   2.0000                                         
     2  0  0.50      -211.7007   2.0000                                         
     2  1  1.50      -156.4958   6.0000                                         
     3  0  0.50       -17.2562   2.0000                                         
     3  1  0.50        -7.0085   4.0000                                         
     3  2  1.50        -6.8029   0.0000                                         
   Description                                                                  
     l       E           TYP  RCUT    TYP  RCUT                                 
     0    -17.2561641     23  1.900                                             
     0    -15.8743224     23  1.900                                             
     1     -7.0085400     23  1.900                                             
     1     -2.7779785     23  1.900                                             
     2     -6.8029130     23  1.900                                             
  local pseudopotential read in
  partial core-charges read in
  partial kinetic energy density read in
  atomic valenz-charges read in
  non local Contribution for L=           0  read in
    real space projection operators read in
  non local Contribution for L=           0  read in
    real space projection operators read in
  non local Contribution for L=           1  read in
    real space projection operators read in
  non local Contribution for L=           1  read in
    real space projection operators read in
    PAW grid and wavefunctions read in
 
   number of l-projection  operators is LMAX  =           4
   number of lm-projection operators is LMMAX =           8
 

 ----------------------------------------------------------------------------- 
|                                                                             |
|  ADVICE TO THIS USER RUNNING 'VASP/VAMP'   (HEAR YOUR MASTER'S VOICE ...):  |
|                                                                             |
|      You have a (more or less) 'large supercell' and for larger cells       |
|      it might be more efficient to use real space projection opertators     |
|      So try LREAL= Auto  in the INCAR   file.                               |
|      Mind: At the moment your POTCAR file does not contain real space       |
|       projectors, and has to be modified,  BUT if you                       |
|      want to do an extremely  accurate calculation you might also keep the  |
|      reciprocal projection scheme          (i.e. LREAL=.FALSE.)             |
|                                                                             |
 ----------------------------------------------------------------------------- 

  PAW_PBE C 08Apr2002                   :
 energy of atom  1       EATOM= -147.1560
 kinetic energy error for atom=    0.0076 (will be added to EATOM!!)
  PAW_PBE H 15Jun2001                   :
 energy of atom  2       EATOM=  -12.4884
 kinetic energy error for atom=    0.0020 (will be added to EATOM!!)
  PAW_PBE S 06Sep2000                   :
 energy of atom  3       EATOM= -276.8230
 kinetic energy error for atom=    0.0020 (will be added to EATOM!!)
 
 
 POSCAR: Molecule_POSCAR_05                      
  positions in cartesian coordinates
  No initial velocities read in
 exchange correlation table for  LEXCH =        8
   RHO(1)=    0.500       N(1)  =     2000
   RHO(2)=  100.500       N(2)  =     4000

 VTST: version 3.2, (02/03/18)

 CHAIN: initializing optimizer
 
 OPT: Using VASP Dynamics algorithm
 CHAIN: Read ICHAIN            0
 
 POSCAR: Molecule_POSCAR_05                      
  positions in cartesian coordinates
  No initial velocities read in
 


--------------------------------------------------------------------------------------------------------


 ion  position               nearest neighbor table
   1  0.884  0.524  0.484-  44 1.10  43 1.12  45 1.13   2 1.51
   2  0.874  0.488  0.517-  46 1.11  47 1.12   1 1.51   3 1.51
   3  0.824  0.477  0.517-  48 1.09  49 1.10   4 1.50   2 1.51
   4  0.799  0.518  0.530-  50 1.11  51 1.11   3 1.50   5 1.51
   5  0.749  0.509  0.532-  53 1.09  52 1.12   6 1.51   4 1.51
   6  0.733  0.495  0.486-  55 1.09  54 1.11   7 1.51   5 1.51
   7  0.683  0.486  0.487-   8 1.35   6 1.51  86 1.70
   8  0.663  0.447  0.497-  56 1.12   9 1.33   7 1.35  86 2.40
   9  0.618  0.445  0.497-  57 1.13   8 1.33  10 1.44
  10  0.595  0.485  0.486-   9 1.44  11 1.45  86 1.74
  11  0.547  0.492  0.487-  12 1.39  42 1.39  10 1.45
  12  0.521  0.458  0.469-  13 1.38  11 1.39  21 1.40
  13  0.539  0.423  0.444-  58 1.07  12 1.38  14 1.39
  14  0.512  0.390  0.425-  19 1.37  15 1.38  13 1.39
  15  0.531  0.356  0.400-  59 1.08  14 1.38  16 1.40
  16  0.503  0.323  0.381-  60 1.08  17 1.37  15 1.40
  17  0.458  0.325  0.385-  61 1.08  16 1.37  18 1.40
  18  0.440  0.360  0.410-  62 1.07  19 1.37  17 1.40
  19  0.467  0.392  0.429-  14 1.37  18 1.37  20 1.40
  20  0.449  0.427  0.454-  63 1.06  21 1.39  19 1.40
  21  0.475  0.460  0.473-  22 1.38  20 1.39  12 1.40
  22  0.454  0.495  0.495-  33 1.38  21 1.38  23 1.46
  23  0.407  0.495  0.504-  24 1.34  22 1.46  85 1.80
  24  0.380  0.462  0.519-  64 1.13  25 1.33  23 1.34
  25  0.337  0.470  0.528-  65 1.13  24 1.33  26 1.41
  26  0.321  0.513  0.520-  25 1.41  27 1.49  85 1.76
  27  0.276  0.531  0.526-  67 1.12  66 1.12  26 1.49  28 1.50
  28  0.249  0.525  0.484-  69 1.10  68 1.13  27 1.50  29 1.50
  29  0.202  0.542  0.488-  70 1.11  71 1.13  28 1.50  30 1.51
  30  0.177  0.519  0.524-  73 1.10  72 1.12  29 1.51  31 1.52
  31  0.129  0.536  0.528-  75 1.10  74 1.12  32 1.51  30 1.52
  32  0.105  0.530  0.485-  77 1.09  76 1.11  78 1.12  31 1.51
  33  0.481  0.528  0.512-  22 1.38  42 1.39  34 1.40
  34  0.463  0.564  0.536-  79 1.08  35 1.38  33 1.40
  35  0.489  0.597  0.554-  40 1.36  36 1.38  34 1.38
  36  0.468  0.632  0.576-  80 1.08  35 1.38  37 1.39
  37  0.494  0.665  0.594-  81 1.08  38 1.38  36 1.39
  38  0.540  0.664  0.590-  82 1.09  37 1.38  39 1.39
  39  0.560  0.629  0.567-  83 1.07  40 1.37  38 1.39
  40  0.534  0.595  0.549-  35 1.36  39 1.37  41 1.40
  41  0.555  0.560  0.526-  84 1.07  42 1.37  40 1.40
  42  0.527  0.528  0.509-  41 1.37  33 1.39  11 1.39
  43  0.876  0.558  0.497-   1 1.12
  44  0.870  0.519  0.451-   1 1.10
  45  0.922  0.524  0.481-   1 1.13
  46  0.894  0.458  0.508-   2 1.11
  47  0.885  0.499  0.550-   2 1.12
  48  0.818  0.451  0.542-   3 1.09
  49  0.815  0.463  0.484-   3 1.10
  50  0.809  0.527  0.564-   4 1.11
  51  0.806  0.546  0.508-   4 1.11
  52  0.733  0.542  0.538-   5 1.12
  53  0.741  0.486  0.558-   5 1.09
  54  0.748  0.462  0.479-   6 1.11
  55  0.742  0.517  0.460-   6 1.09
  56  0.683  0.417  0.505-   8 1.12
  57  0.598  0.414  0.506-   9 1.13
  58  0.573  0.420  0.438-  13 1.07
  59  0.566  0.353  0.396-  15 1.08
  60  0.519  0.296  0.362-  16 1.08
  61  0.438  0.300  0.370-  17 1.08
  62  0.404  0.362  0.414-  18 1.07
  63  0.414  0.429  0.456-  20 1.06
  64  0.395  0.428  0.526-  24 1.13
  65  0.312  0.444  0.541-  25 1.13
  66  0.260  0.513  0.555-  27 1.12
  67  0.276  0.567  0.536-  27 1.12
  68  0.247  0.488  0.478-  28 1.13
  69  0.267  0.542  0.457-  28 1.10
  70  0.184  0.537  0.457-  29 1.11
  71  0.202  0.579  0.495-  29 1.13
  72  0.173  0.483  0.514-  30 1.12
  73  0.193  0.520  0.557-  30 1.10
  74  0.112  0.516  0.554-  31 1.12
  75  0.129  0.572  0.537-  31 1.10
  76  0.071  0.515  0.491-  32 1.11
  77  0.122  0.507  0.462-  32 1.09
  78  0.100  0.562  0.467-  32 1.12
  79  0.428  0.565  0.540-  34 1.08
  80  0.432  0.634  0.580-  36 1.08
  81  0.477  0.692  0.611-  37 1.08
  82  0.560  0.690  0.604-  38 1.09
  83  0.595  0.627  0.563-  39 1.07
  84  0.590  0.558  0.523-  41 1.07
  85  0.369  0.541  0.501-  26 1.76  23 1.80
  86  0.640  0.521  0.477-   7 1.70  10 1.74   8 2.40
 
  LATTYP: Found a simple cubic cell.
 ALAT       =    30.0000000000
  
  Lattice vectors:
  
 A1 = (  30.0000000000,   0.0000000000,   0.0000000000)
 A2 = (   0.0000000000,  30.0000000000,   0.0000000000)
 A3 = (   0.0000000000,   0.0000000000,  30.0000000000)


Analysis of symmetry for initial positions (statically):
=====================================================================
 Subroutine PRICEL returns:
 Original cell was already a primitive cell.
 

 Routine SETGRP: Setting up the symmetry group for a 
 simple cubic supercell.


 Subroutine GETGRP returns: Found  1 space group operations
 (whereof  1 operations were pure point group operations)
 out of a pool of 48 trial point group operations.


The static configuration has the point symmetry C_1 .


Analysis of symmetry for dynamics (positions and initial velocities):
=====================================================================
 Subroutine PRICEL returns:
 Original cell was already a primitive cell.
 

 Routine SETGRP: Setting up the symmetry group for a 
 simple cubic supercell.


 Subroutine GETGRP returns: Found  1 space group operations
 (whereof  1 operations were pure point group operations)
 out of a pool of 48 trial point group operations.


The dynamic configuration has the point symmetry C_1 .
 
 
 KPOINTS: Gamma-point only                        

Automatic generation of k-mesh.
Space group operators:
 irot       det(A)        alpha          n_x          n_y          n_z        tau_x        tau_y        tau_z
    1     1.000000     0.000000     1.000000     0.000000     0.000000     0.000000     0.000000     0.000000
 
 Subroutine IBZKPT returns following result:
 ===========================================
 
 Found      1 irreducible k-points:
 
 Following reciprocal coordinates:
            Coordinates               Weight
  0.000000  0.000000  0.000000      1.000000
 
 Following cartesian coordinates:
            Coordinates               Weight
  0.000000  0.000000  0.000000      1.000000
 
 
 Subroutine IBZKPT_HF returns following result:
 ==============================================
 
 Found      1 k-points in 1st BZ
 the following      1 k-points will be used (e.g. in the exchange kernel)
 Following reciprocal coordinates:   # in IRBZ
  0.000000  0.000000  0.000000    1.00000000   1 t-inv F


--------------------------------------------------------------------------------------------------------




 Dimension of arrays:
   k-points           NKPTS =      1   k-points in BZ     NKDIM =      1   number of bands    NBANDS=    156
   number of dos      NEDOS =    301   number of ions     NIONS =     86
   non local maximal  LDIM  =      4   non local SUM 2l+1 LMDIM =      8
   total plane-waves  NPLWV = ******
   max r-space proj   IRMAX =      1   max aug-charges    IRDMAX=   5732
   dimension x,y,z NGX =   168 NGY =  168 NGZ =  168
   dimension x,y,z NGXF=   336 NGYF=  336 NGZF=  336
   support grid    NGXF=   336 NGYF=  336 NGZF=  336
   ions per type =              42  42   2
 NGX,Y,Z   is equivalent  to a cutoff of   9.31,  9.31,  9.31 a.u.
 NGXF,Y,Z  is equivalent  to a cutoff of  18.62, 18.62, 18.62 a.u.


 I would recommend the setting:
   dimension x,y,z NGX =   164 NGY =  164 NGZ =  164
 SYSTEM =  Step2_PBE0_Final_Calc                   
 POSCAR =  Molecule_POSCAR_05                      

 Startparameter for this run:
   NWRITE =      2    write-flag & timer
   PREC   = normal    normal or accurate (medium, high low for compatibility)
   ISTART =      1    job   : 0-new  1-cont  2-samecut
   ICHARG =      0    charge: 1-file 2-atom 10-const
   ISPIN  =      1    spin polarized calculation?
   LNONCOLLINEAR =      F non collinear calculations
   LSORBIT =      F    spin-orbit coupling
   INIWAV =      1    electr: 0-lowe 1-rand  2-diag
   LASPH  =      T    aspherical Exc in radial PAW
   METAGGA=      F    non-selfconsistent MetaGGA calc.

 Electronic Relaxation 1
   ENCUT  =  500.0 eV  36.75 Ry    6.06 a.u.  54.70 54.70 54.70*2*pi/ulx,y,z
   ENINI  =  500.0     initial cutoff
   ENAUG  =  644.9 eV  augmentation charge cutoff
   NELM   =    100;   NELMIN=  2; NELMDL=  0     # of ELM steps 
   EDIFF  = 0.1E-05   stopping-criterion for ELM
   LREAL  =      F    real-space projection
   NLSPLINE    = F    spline interpolate recip. space projectors
   LCOMPAT=      F    compatible to vasp.4.4
   GGA_COMPAT  = T    GGA compatible to vasp.4.4-vasp.4.6
   LMAXPAW     = -100 max onsite density
   LMAXMIX     =    2 max onsite mixed and CHGCAR
   VOSKOWN=      0    Vosko Wilk Nusair interpolation
   ROPT   =    0.00000   0.00000   0.00000
 Ionic relaxation
   EDIFFG = 0.1E-04   stopping-criterion for IOM
   NSW    =      0    number of steps for IOM
   NBLOCK =      1;   KBLOCK =      1    inner block; outer block 
   IBRION =     -1    ionic relax: 0-MD 1-quasi-New 2-CG
   NFREE  =      0    steps in history (QN), initial steepest desc. (CG)
   ISIF   =      0    stress and relaxation
   IWAVPR =     10    prediction:  0-non 1-charg 2-wave 3-comb
   ISYM   =      3    0-nonsym 1-usesym 2-fastsym
   LCORR  =      T    Harris-Foulkes like correction to forces

   POTIM  = 0.5000    time-step for ionic-motion
   TEIN   =    0.0    initial temperature
   TEBEG  =    0.0;   TEEND  =   0.0 temperature during run
   SMASS  =  -3.00    Nose mass-parameter (am)
   estimated Nose-frequenzy (Omega)   =  0.10E-29 period in steps =****** mass=  -0.206E-25a.u.
   SCALEE = 1.0000    scale energy and forces
   NPACO  =    256;   APACO  = 16.0  distance and # of slots for P.C.
   PSTRESS=    0.0 pullay stress

  Mass of Ions in am
   POMASS =  12.01  1.00 32.07
  Ionic Valenz
   ZVAL   =   4.00  1.00  6.00
  Atomic Wigner-Seitz radii
   RWIGS  =  -1.00 -1.00 -1.00
  virtual crystal weights 
   VCA    =   1.00  1.00  1.00
   NELECT =     222.0000    total number of electrons
   NUPDOWN=      -1.0000    fix difference up-down

 DOS related values:
   EMIN   =  10.00;   EMAX   =-10.00  energy-range for DOS
   EFERMI =   0.00
   ISMEAR =     0;   SIGMA  =   0.05  broadening in eV -4-tet -1-fermi 0-gaus

 Electronic relaxation 2 (details)
   IALGO  =     58    algorithm
   LDIAG  =      T    sub-space diagonalisation (order eigenvalues)
   LSUBROT=      F    optimize rotation matrix (better conditioning)
   TURBO    =      0    0=normal 1=particle mesh
   IRESTART =      0    0=no restart 2=restart with 2 vectors
   NREBOOT  =      0    no. of reboots
   NMIN     =      0    reboot dimension
   EREF     =   0.00    reference energy to select bands
   IMIX   =      4    mixing-type and parameters
     AMIX     =   0.40;   BMIX     =  1.00
     AMIX_MAG =   1.60;   BMIX_MAG =  1.00
     AMIN     =   0.10
     WC   =   100.;   INIMIX=   1;  MIXPRE=   1;  MAXMIX= -45

 Intra band minimization:
   WEIMIN = 0.0000     energy-eigenvalue tresh-hold
   EBREAK =  0.16E-08  absolut break condition
   DEPER  =   0.30     relativ break condition  

   TIME   =   0.40     timestep for ELM

  volume/ion in A,a.u.               =     313.95      2118.66
  Fermi-wavevector in a.u.,A,eV,Ry     =   0.330424  0.624410  1.485482  0.109180
  Thomas-Fermi vector in A             =   1.225715
 
 Write flags
   LWAVE  =      F    write WAVECAR
   LCHARG =      F    write CHGCAR
   LVTOT  =      F    write LOCPOT, total local potential
   LVHAR  =      F    write LOCPOT, Hartree potential only
   LELF   =      F    write electronic localiz. function (ELF)
   LORBIT =      0    0 simple, 1 ext, 2 COOP (PROOUT)


 Dipole corrections
   LMONO  =      F    monopole corrections only (constant potential shift)
   LDIPOL =      F    correct potential (dipole corrections)
   IDIPOL =      0    1-x, 2-y, 3-z, 4-all directions 
   EPSILON=  1.0000000 bulk dielectric constant

 Exchange correlation treatment:
   GGA     =    PE    GGA type
   LEXCH   =     8    internal setting for exchange type
   VOSKOWN=      0    Vosko Wilk Nusair interpolation
   EXXOEP  =     0    0=HF, 1=EXX-LHF (local Hartree Fock) 2=EXX OEP
   LHFCALC =     T    Hartree Fock is set to
   LSYMGRAD=     F    symmetrize gradient (conserves proper symmetry)
   PRECFOCK=fast      Normal, Fast or Accurate (Low or Medium for compatibility)
   LRHFCALC=     F    long range Hartree Fock
   LRSCOR  =     F    long range correlation only (use DFT for short range part)
   LTHOMAS =     F    Thomas Fermi screening in HF
   LMODELHF=     F    short range full HF, long range fraction AEXX
   ENCUT4O =  -1.0   cutoff for four orbital integrals eV
   LMAXFOCK=     4    L truncation for augmentation on plane wave grid
   LMAXFOCKAE=  -1    L truncation for all-electron charge restoration on plane wave grid
   NMAXFOCKAE=   1    number of basis functions for all-electron charge restoration
   LFOCKAEDFT=     F  apply the AE augmentation even for DFT
   NKREDX  =     1    reduce k-point grid by
   NKREDY  =     1    reduce k-point grid by
   NKREDZ  =     1    reduce k-point grid by
   SHIFTRED=     F    shift reduced grid of Gamma
   HFKIDENT=     F    idential grid for each k-point
   ODDONLY =     F    use only odd q-grid points
   EVENONLY=     F    use only even q-grid points
   HFALPHA =   -1.0000 decay constant for conv. correction
   MCALPHA =    0.0000 extent of test-charge in conv. correction in multipole expansion
   AEXX    =    0.2500 exact exchange contribution
   HFSCREEN=    0.0000 screening length (either q_TF or 0.3 A-1)
   HFSCREENC=   0.0000 screening length for correlation (either q_TF or 0.3 A-1)
   HFRCUT  =    0.0000 spherical cutoff for potential kernel
   ALDAX   =    0.7500 LDA exchange part
   AGGAX   =    0.7500 GGA exchange part
   ALDAC   =    1.0000 LDA correlation
   AGGAC   =    1.0000 GGA correlation
   NBANDSGWLOW=     1    first orbital included in HF term
   ENCUTFOCK=  -1.0 apply spherical cutoff to Coloumb kernel
 Linear response parameters
   LEPSILON=     F    determine dielectric tensor
   LRPA    =     F    only Hartree local field effects (RPA)
   LNABLA  =     F    use nabla operator in PAW spheres
   LVEL    =     F    velocity operator in full k-point grid
   LINTERFAST=   F  fast interpolation
   KINTER  =     0    interpolate to denser k-point grid
   CSHIFT  =0.1000    complex shift for real part using Kramers Kronig
   OMEGAMAX=  -1.0    maximum frequency
   DEG_THRESHOLD= 0.2000000E-02 threshold for treating states as degnerate
   RTIME   =    0.100 relaxation time in fs

 Orbital magnetization related:
   ORBITALMAG=     F  switch on orbital magnetization
   LCHIMAG   =     F  perturbation theory with respect to B field
   DQ        =  0.001000  dq finite difference perturbation B field



--------------------------------------------------------------------------------------------------------


 Static calculation
 charge density and potential will be updated during run
 non-spin polarized calculation
 Conjugate gradient for all bands (Freysoldt, et al. PRB 79, 241103 (2009))
 preconditioned conjugated gradient                                        
 perform sub-space diagonalisation
    before iterative eigenvector-optimisation
 modified Broyden-mixing scheme, WC =      100.0
 initial mixing is a Kerker type mixing with AMIX =  0.4000 and BMIX =      1.0000
 Hartree-type preconditioning will be used
 using additional bands           45
 reciprocal scheme for non local part
 use partial core corrections
 no Harris-corrections to forces 
 use gradient corrections 
 use of overlap-Matrix (Vanderbilt PP)
 Gauss-broadening in eV      SIGMA  =   0.05


--------------------------------------------------------------------------------------------------------


  energy-cutoff  :      500.00
  volume of cell :    27000.00
      direct lattice vectors                 reciprocal lattice vectors
    30.000000000  0.000000000  0.000000000     0.033333333  0.000000000  0.000000000
     0.000000000 30.000000000  0.000000000     0.000000000  0.033333333  0.000000000
     0.000000000  0.000000000 30.000000000     0.000000000  0.000000000  0.033333333

  length of vectors
    30.000000000 30.000000000 30.000000000     0.033333333  0.033333333  0.033333333


 
 old parameters found on file WAVECAR:
  energy-cutoff  :      500.00
  volume of cell :    27000.00
      direct lattice vectors                 reciprocal lattice vectors
    30.000000000  0.000000000  0.000000000     0.033333333  0.000000000  0.000000000
     0.000000000 30.000000000  0.000000000     0.000000000  0.033333333  0.000000000
     0.000000000  0.000000000 30.000000000     0.000000000  0.000000000  0.033333333

  length of vectors

 
 k-points in units of 2pi/SCALE and weight: Gamma-point only                        
   0.00000000  0.00000000  0.00000000       1.000
 
 k-points in reciprocal lattice and weights: Gamma-point only                        
   0.00000000  0.00000000  0.00000000       1.000
 
 position of ions in fractional coordinates (direct lattice) 
   0.88442143  0.52415053  0.48393097
   0.87353000  0.48768683  0.51675037
   0.82434370  0.47680093  0.51742413
   0.79856643  0.51756943  0.53031883
   0.74888623  0.50924730  0.53174743
   0.73250053  0.49454047  0.48645597
   0.68303133  0.48619093  0.48749843
   0.66261240  0.44711130  0.49713430
   0.61823710  0.44474587  0.49673740
   0.59471050  0.48509780  0.48570107
   0.54673907  0.49173740  0.48674547
   0.52128303  0.45761430  0.46877853
   0.53859363  0.42282513  0.44444640
   0.51236463  0.39006817  0.42460253
   0.53057670  0.35550787  0.40048870
   0.50343730  0.32299803  0.38087387
   0.45818523  0.32524323  0.38549523
   0.43978430  0.36032417  0.40996663
   0.46687717  0.39194923  0.42899813
   0.44903897  0.42720723  0.45354320
   0.47504370  0.45978483  0.47339737
   0.45442613  0.49466487  0.49512650
   0.40655983  0.49454127  0.50402843
   0.37993257  0.46201157  0.51931827
   0.33699887  0.46958483  0.52769163
   0.32138943  0.51310070  0.51974910
   0.27558760  0.53079210  0.52616093
   0.24903350  0.52503257  0.48432093
   0.20234243  0.54221353  0.48812767
   0.17672447  0.51857843  0.52443663
   0.12939167  0.53624757  0.52794460
   0.10456437  0.52967063  0.48485103
   0.48103710  0.52789647  0.51232087
   0.46325400  0.56408383  0.53551443
   0.48926353  0.59744713  0.55371870
   0.46784347  0.63153513  0.57585437
   0.49391823  0.66506200  0.59414530
   0.53975037  0.66357427  0.58986380
   0.55981410  0.62857367  0.56727833
   0.53439123  0.59515063  0.54900360
   0.55460260  0.55995210  0.52629003
   0.52733300  0.52769833  0.50881400
   0.87599857  0.55795847  0.49724757
   0.87032283  0.51855783  0.45050747
   0.92191307  0.52448407  0.48096790
   0.89411493  0.45824260  0.50812667
   0.88545907  0.49929897  0.55003077
   0.81833530  0.45068273  0.54213493
   0.81538870  0.46324457  0.48444150
   0.80886807  0.52705597  0.56443450
   0.80596167  0.54632467  0.50804427
   0.73306917  0.54245203  0.53826780
   0.74065303  0.48588160  0.55825010
   0.74773983  0.46178623  0.47882843
   0.74178463  0.51730923  0.45979373
   0.68286923  0.41680077  0.50542027
   0.59835727  0.41387640  0.50564443
   0.57345063  0.41987543  0.43787580
   0.56609890  0.35264883  0.39613730
   0.51873443  0.29627783  0.36214737
   0.43797277  0.29986567  0.37011380
   0.40438170  0.36222460  0.41367797
   0.41371030  0.42923120  0.45559583
   0.39478773  0.42794153  0.52626173
   0.31229187  0.44400083  0.54057570
   0.26015263  0.51286977  0.55505130
   0.27628500  0.56659030  0.53621673
   0.24665600  0.48816430  0.47779837
   0.26670607  0.54199087  0.45690653
   0.18376237  0.53659220  0.45668550
   0.20150067  0.57905847  0.49542077
   0.17344473  0.48300540  0.51399980
   0.19294063  0.52023720  0.55730340
   0.11226007  0.51572650  0.55396777
   0.12870827  0.57186880  0.53694543
   0.07120393  0.51499983  0.49082753
   0.12232713  0.50726837  0.46223250
   0.10008973  0.56205380  0.46675757
   0.42760440  0.56497103  0.53962927
   0.43211423  0.63377200  0.57983897
   0.47695947  0.69160640  0.61140250
   0.55990163  0.69001933  0.60432273
   0.59525687  0.62657357  0.56345457
   0.59011883  0.55837633  0.52313977
   0.36928727  0.54127443  0.50052033
   0.63953440  0.52114630  0.47745847
 
 position of ions in cartesian coordinates  (Angst):
  26.53264300 15.72451600 14.51792900
  26.20590000 14.63060500 15.50251100
  24.73031100 14.30402800 15.52272400
  23.95699300 15.52708300 15.90956500
  22.46658700 15.27741900 15.95242300
  21.97501600 14.83621400 14.59367900
  20.49094000 14.58572800 14.62495300
  19.87837200 13.41333900 14.91402900
  18.54711300 13.34237600 14.90212200
  17.84131500 14.55293400 14.57103200
  16.40217200 14.75212200 14.60236400
  15.63849100 13.72842900 14.06335600
  16.15780900 12.68475400 13.33339200
  15.37093900 11.70204500 12.73807600
  15.91730100 10.66523600 12.01466100
  15.10311900  9.68994100 11.42621600
  13.74555700  9.75729700 11.56485700
  13.19352900 10.80972500 12.29899900
  14.00631500 11.75847700 12.86994400
  13.47116900 12.81621700 13.60629600
  14.25131100 13.79354500 14.20192100
  13.63278400 14.83994600 14.85379500
  12.19679500 14.83623800 15.12085300
  11.39797700 13.86034700 15.57954800
  10.10996600 14.08754500 15.83074900
   9.64168300 15.39302100 15.59247300
   8.26762800 15.92376300 15.78482800
   7.47100500 15.75097700 14.52962800
   6.07027300 16.26640600 14.64383000
   5.30173400 15.55735300 15.73309900
   3.88175000 16.08742700 15.83833800
   3.13693100 15.89011900 14.54553100
  14.43111300 15.83689400 15.36962600
  13.89762000 16.92251500 16.06543300
  14.67790600 17.92341400 16.61156100
  14.03530400 18.94605400 17.27563100
  14.81754700 19.95186000 17.82435900
  16.19251100 19.90722800 17.69591400
  16.79442300 18.85721000 17.01835000
  16.03173700 17.85451900 16.47010800
  16.63807800 16.79856300 15.78870100
  15.81999000 15.83095000 15.26442000
  26.27995700 16.73875400 14.91742700
  26.10968500 15.55673500 13.51522400
  27.65739200 15.73452200 14.42903700
  26.82344800 13.74727800 15.24380000
  26.56377200 14.97896900 16.50092300
  24.55005900 13.52048200 16.26404800
  24.46166100 13.89733700 14.53324500
  24.26604200 15.81167900 16.93303500
  24.17885000 16.38974000 15.24132800
  21.99207500 16.27356100 16.14803400
  22.21959100 14.57644800 16.74750300
  22.43219500 13.85358700 14.36485300
  22.25353900 15.51927700 13.79381200
  20.48607700 12.50402300 15.16260800
  17.95071800 12.41629200 15.16933300
  17.20351900 12.59626300 13.13627400
  16.98296700 10.57946500 11.88411900
  15.56203300  8.88833500 10.86442100
  13.13918300  8.99597000 11.10341400
  12.13145100 10.86673800 12.41033900
  12.41130900 12.87693600 13.66787500
  11.84363200 12.83824600 15.78785200
   9.36875600 13.32002500 16.21727100
   7.80457900 15.38609300 16.65153900
   8.28855000 16.99770900 16.08650200
   7.39968000 14.64492900 14.33395100
   8.00118200 16.25972600 13.70719600
   5.51287100 16.09776600 13.70056500
   6.04502000 17.37175400 14.86262300
   5.20334200 14.49016200 15.41999400
   5.78821900 15.60711600 16.71910200
   3.36780200 15.47179500 16.61903300
   3.86124800 17.15606400 16.10836300
   2.13611800 15.44999500 14.72482600
   3.66981400 15.21805100 13.86697500
   3.00269200 16.86161400 14.00272700
  12.82813200 16.94913100 16.18887800
  12.96342700 19.01316000 17.39516900
  14.30878400 20.74819200 18.34207500
  16.79704900 20.70058000 18.12968200
  17.85770600 18.79720700 16.90363700
  17.70356500 16.75129000 15.69419300
  11.07861800 16.23823300 15.01561000
  19.18603200 15.63438900 14.32375400
 


--------------------------------------------------------------------------------------------------------


 use seriel FFT for wavefunctions x direction half grid
 k-point  1 :   0.0000 0.0000 0.0000  plane waves:  342683

 maximum and minimum number of plane-waves per node :    342683   342683

 maximum number of plane-waves:    342683
 maximum index in each direction: 
   IXMAX=   54   IYMAX=   54   IZMAX=   54
   IXMIN=    0   IYMIN=  -54   IZMIN=  -54

 WARNING: aliasing errors must be expected set NGX to 218 to avoid them
 WARNING: aliasing errors must be expected set NGY to 218 to avoid them
 WARNING: aliasing errors must be expected set NGZ to 218 to avoid them
 aliasing errors are usually negligible using standard VASP settings
 and one can safely disregard these warnings

 serial   3D FFT for wavefunctions
 parallel 3D FFT for charge:
    minimum data exchange during FFTs selected (reduces bandwidth)


 FFT grid for exact exchange (Hartree Fock) 
  NGX =112; NGY =112; NGZ =112

 use seriel FFT for wavefunctions x direction half grid
 
 Radii for the augmentation spheres in the non-local exchange
 for species   1 augmentation radius   0.944 (default was   0.699)
       energy cutoff for augmentation   2000.0
 for species   2 augmentation radius   0.702 (default was   0.520)
       energy cutoff for augmentation   2000.0
 for species   3 augmentation radius   1.309 (default was   0.970)
       energy cutoff for augmentation   2000.0
 Maximum index for augmentation-charges in exchange          496
  SETUP_FOCK is finished

 total amount of memory used by VASP on root node  2349045. kBytes
========================================================================

   base      :      30000. kBytes
   nonl-proj :     537328. kBytes
   fftplans  :     338850. kBytes
   grid      :     799755. kBytes
   one-center:        132. kBytes
   HF        :         13. kBytes
   nonlr-proj:        937. kBytes
   wavefun   :     642030. kBytes
 
     INWAV:  cpu time    1.1780: real time    4.7435
 Broyden mixing: mesh for mixing (old mesh)
   NGX =109   NGY =109   NGZ =109
  (NGX  =336   NGY  =336   NGZ  =336)
  gives a total of ****** points

 charge density for first step will be calculated from the start-wavefunctions


--------------------------------------------------------------------------------------------------------


 Maximum index for augmentation-charges         1356 (set IRDMAX)


--------------------------------------------------------------------------------------------------------


 initial charge from wavefunction
 FEWALD executed in parallel
    FEWALD:  cpu time    0.0048: real time    0.0048


----------------------------------------- Iteration    1(   1)  ---------------------------------------


    POTLOK:  cpu time    3.6042: real time    3.6175
    SETDIJ:  cpu time    0.5849: real time    0.5866
    TRIAL :  cpu time  287.2408: real time  288.5902
    CORREC:  cpu time  233.5219: real time  234.2880
    CHARGE:  cpu time    3.0385: real time    3.0489
    --------------------------------------------
      LOOP:  cpu time  528.0854: real time  530.2348

 eigenvalue-minimisations  :     0
 total energy-change (2. order) :-0.6503474E+03  (-0.5097395E+00)
 number of electron     222.0000003 magnetization 
 augmentation part        3.3150324 magnetization 

 Free energy of the ion-electron system (eV)
  ---------------------------------------------------
  alpha Z        PSCENC =         8.34699307
  Ewald energy   TEWEN  =     33381.82952940
  -Hartree energ DENC   =    -39221.61764947
  -exchange      EXHF   =       572.33561294
  -V(xc)+E(xc)   XCENC  =       555.96628186
  PAW double counting   =     20554.08825448   -20570.12998317
  entropy T*S    EENTRO =        -0.00000000
  eigenvalues    EBANDS =     -3063.29890430
  atomic energy  EATOM  =      7132.13241825
  ---------------------------------------------------
  free energy    TOTEN  =      -650.34744695 eV

  energy without entropy =     -650.34744695  energy(sigma->0) =     -650.34744695
  exchange ACFDT corr.  =        -0.00000000  see jH, gK, PRB 81, 115126


--------------------------------------------------------------------------------------------------------




----------------------------------------- Iteration    1(   2)  ---------------------------------------


    POTLOK:  cpu time    3.4949: real time    3.5053
    SETDIJ:  cpu time    0.5818: real time    0.5833
    TRIAL :  cpu time  267.5831: real time  268.4662
    CORREC:  cpu time  233.8554: real time  234.6160
    CHARGE:  cpu time    2.9864: real time    2.9960
    --------------------------------------------
      LOOP:  cpu time  508.5020: real time  510.1676

 eigenvalue-minimisations  :     0
 total energy-change (2. order) :-0.5107211E+00  (-0.8384053E-01)
 number of electron     222.0000003 magnetization 
 augmentation part        3.3036659 magnetization 

 Free energy of the ion-electron system (eV)
  ---------------------------------------------------
  alpha Z        PSCENC =         8.34699307
  Ewald energy   TEWEN  =     33381.82952940
  -Hartree energ DENC   =    -39213.75237605
  -exchange      EXHF   =       572.60446759
  -V(xc)+E(xc)   XCENC  =       555.60082229
  PAW double counting   =     21794.48542743   -21810.06226778
  entropy T*S    EENTRO =        -0.00000000
  eigenvalues    EBANDS =     -3072.04318230
  atomic energy  EATOM  =      7132.13241825
  ---------------------------------------------------
  free energy    TOTEN  =      -650.85816808 eV

  energy without entropy =     -650.85816808  energy(sigma->0) =     -650.85816808
  exchange ACFDT corr.  =        -0.00000000  see jH, gK, PRB 81, 115126


--------------------------------------------------------------------------------------------------------




----------------------------------------- Iteration    1(   3)  ---------------------------------------


    POTLOK:  cpu time    3.4972: real time    3.5078
    SETDIJ:  cpu time    0.5817: real time    0.5832
    TRIAL :  cpu time  268.0871: real time  268.9836
    CORREC:  cpu time  233.2294: real time  233.9916
    CHARGE:  cpu time    3.0831: real time    3.0927
    --------------------------------------------
      LOOP:  cpu time  508.4788: real time  510.1597

 eigenvalue-minimisations  :     0
 total energy-change (2. order) :-0.8392717E-01  (-0.2298482E-01)
 number of electron     222.0000003 magnetization 
 augmentation part        3.3025139 magnetization 

 Free energy of the ion-electron system (eV)
  ---------------------------------------------------
  alpha Z        PSCENC =         8.34699307
  Ewald energy   TEWEN  =     33381.82952940
  -Hartree energ DENC   =    -39216.43803327
  -exchange      EXHF   =       572.80491917
  -V(xc)+E(xc)   XCENC  =       555.62943100
  PAW double counting   =     22192.03723594   -22207.51000278
  entropy T*S    EENTRO =        -0.00000000
  eigenvalues    EBANDS =     -3069.77458605
  atomic energy  EATOM  =      7132.13241825
  ---------------------------------------------------
  free energy    TOTEN  =      -650.94209526 eV

  energy without entropy =     -650.94209526  energy(sigma->0) =     -650.94209526
  exchange ACFDT corr.  =         0.00000000  see jH, gK, PRB 81, 115126


--------------------------------------------------------------------------------------------------------




----------------------------------------- Iteration    1(   4)  ---------------------------------------


    POTLOK:  cpu time    3.5922: real time    3.6035
    SETDIJ:  cpu time    0.5855: real time    0.5872
    TRIAL :  cpu time  266.9236: real time  267.8096
    CORREC:  cpu time  234.3030: real time  235.0744
    CHARGE:  cpu time    3.1267: real time    3.1366
    --------------------------------------------
      LOOP:  cpu time  508.5314: real time  510.2121

 eigenvalue-minimisations  :     0
 total energy-change (2. order) :-0.2299726E-01  (-0.7886812E-02)
 number of electron     222.0000003 magnetization 
 augmentation part        3.3031016 magnetization 

 Free energy of the ion-electron system (eV)
  ---------------------------------------------------
  alpha Z        PSCENC =         8.34699307
  Ewald energy   TEWEN  =     33381.82952940
  -Hartree energ DENC   =    -39222.05480399
  -exchange      EXHF   =       573.08813283
  -V(xc)+E(xc)   XCENC  =       555.82784558
  PAW double counting   =     22338.49232603   -22353.94615559
  entropy T*S    EENTRO =        -0.00000000
  eigenvalues    EBANDS =     -3064.68137810
  atomic energy  EATOM  =      7132.13241825
  ---------------------------------------------------
  free energy    TOTEN  =      -650.96509251 eV

  energy without entropy =     -650.96509251  energy(sigma->0) =     -650.96509251
  exchange ACFDT corr.  =        -0.00000000  see jH, gK, PRB 81, 115126


--------------------------------------------------------------------------------------------------------




----------------------------------------- Iteration    1(   5)  ---------------------------------------


    POTLOK:  cpu time    3.5649: real time    3.5762
    SETDIJ:  cpu time    0.5863: real time    0.5880
    TRIAL :  cpu time  266.2696: real time  267.1451
    CORREC:  cpu time  235.2593: real time  236.0264
    CHARGE:  cpu time    2.9945: real time    3.0037
    --------------------------------------------
      LOOP:  cpu time  508.6750: real time  510.3411

 eigenvalue-minimisations  :     0
 total energy-change (2. order) :-0.7893448E-02  (-0.3325245E-02)
 number of electron     222.0000003 magnetization 
 augmentation part        3.3035019 magnetization 

 Free energy of the ion-electron system (eV)
  ---------------------------------------------------
  alpha Z        PSCENC =         8.34699307
  Ewald energy   TEWEN  =     33381.82952940
  -Hartree energ DENC   =    -39221.24691820
  -exchange      EXHF   =       573.13875720
  -V(xc)+E(xc)   XCENC  =       555.84891628
  PAW double counting   =     22356.83198184   -22372.28025328
  entropy T*S    EENTRO =        -0.00000000
  eigenvalues    EBANDS =     -3065.57441053
  atomic energy  EATOM  =      7132.13241825
  ---------------------------------------------------
  free energy    TOTEN  =      -650.97298596 eV

  energy without entropy =     -650.97298596  energy(sigma->0) =     -650.97298596
  exchange ACFDT corr.  =         0.00000000  see jH, gK, PRB 81, 115126


--------------------------------------------------------------------------------------------------------




----------------------------------------- Iteration    1(   6)  ---------------------------------------


    POTLOK:  cpu time    3.4581: real time    3.4684
    SETDIJ:  cpu time    0.5819: real time    0.5833
    TRIAL :  cpu time  265.9893: real time  266.8633
    CORREC:  cpu time  235.2879: real time  236.0512
    CHARGE:  cpu time    2.9850: real time    2.9941
    --------------------------------------------
      LOOP:  cpu time  508.3025: real time  509.9618

 eigenvalue-minimisations  :     0
 total energy-change (2. order) :-0.3327570E-02  (-0.1446150E-02)
 number of electron     222.0000003 magnetization 
 augmentation part        3.3045174 magnetization 

 Free energy of the ion-electron system (eV)
  ---------------------------------------------------
  alpha Z        PSCENC =         8.34699307
  Ewald energy   TEWEN  =     33381.82952940
  -Hartree energ DENC   =    -39220.60133497
  -exchange      EXHF   =       573.13920707
  -V(xc)+E(xc)   XCENC  =       555.83966396
  PAW double counting   =     22329.25377772   -22344.70501928
  entropy T*S    EENTRO =        -0.00000000
  eigenvalues    EBANDS =     -3066.21154875
  atomic energy  EATOM  =      7132.13241825
  ---------------------------------------------------
  free energy    TOTEN  =      -650.97631353 eV

  energy without entropy =     -650.97631353  energy(sigma->0) =     -650.97631353
  exchange ACFDT corr.  =         0.00000000  see jH, gK, PRB 81, 115126


--------------------------------------------------------------------------------------------------------




----------------------------------------- Iteration    1(   7)  ---------------------------------------


    POTLOK:  cpu time    3.5091: real time    3.5198
    SETDIJ:  cpu time    0.5847: real time    0.5862
    TRIAL :  cpu time  265.9237: real time  266.7974
    CORREC:  cpu time  235.0191: real time  235.7867
    CHARGE:  cpu time    2.9820: real time    2.9912
    --------------------------------------------
      LOOP:  cpu time  508.0190: real time  509.6829

 eigenvalue-minimisations  :     0
 total energy-change (2. order) :-0.1447610E-02  (-0.5034381E-03)
 number of electron     222.0000003 magnetization 
 augmentation part        3.3052786 magnetization 

 Free energy of the ion-electron system (eV)
  ---------------------------------------------------
  alpha Z        PSCENC =         8.34699307
  Ewald energy   TEWEN  =     33381.82952940
  -Hartree energ DENC   =    -39221.71848690
  -exchange      EXHF   =       573.17022720
  -V(xc)+E(xc)   XCENC  =       555.86629345
  PAW double counting   =     22295.64411872   -22311.10415344
  entropy T*S    EENTRO =        -0.00000000
  eigenvalues    EBANDS =     -3065.14470091
  atomic energy  EATOM  =      7132.13241825
  ---------------------------------------------------
  free energy    TOTEN  =      -650.97776114 eV

  energy without entropy =     -650.97776114  energy(sigma->0) =     -650.97776114
  exchange ACFDT corr.  =        -0.00000000  see jH, gK, PRB 81, 115126


--------------------------------------------------------------------------------------------------------




----------------------------------------- Iteration    1(   8)  ---------------------------------------


    POTLOK:  cpu time    3.5455: real time    3.5563
    SETDIJ:  cpu time    0.5823: real time    0.5839
    TRIAL :  cpu time  267.2229: real time  268.1092
    CORREC:  cpu time  234.3791: real time  235.1488
    CHARGE:  cpu time    3.0015: real time    3.0103
    --------------------------------------------
      LOOP:  cpu time  508.7319: real time  510.4094

 eigenvalue-minimisations  :     0
 total energy-change (2. order) :-0.5038551E-03  (-0.1734466E-03)
 number of electron     222.0000003 magnetization 
 augmentation part        3.3055896 magnetization 

 Free energy of the ion-electron system (eV)
  ---------------------------------------------------
  alpha Z        PSCENC =         8.34699307
  Ewald energy   TEWEN  =     33381.82952940
  -Hartree energ DENC   =    -39221.66128594
  -exchange      EXHF   =       573.16942509
  -V(xc)+E(xc)   XCENC  =       555.86607850
  PAW double counting   =     22276.82969230   -22292.29403679
  entropy T*S    EENTRO =        -0.00000000
  eigenvalues    EBANDS =     -3065.19707888
  atomic energy  EATOM  =      7132.13241825
  ---------------------------------------------------
  free energy    TOTEN  =      -650.97826500 eV

  energy without entropy =     -650.97826500  energy(sigma->0) =     -650.97826500
  exchange ACFDT corr.  =        -0.00000000  see jH, gK, PRB 81, 115126


--------------------------------------------------------------------------------------------------------




----------------------------------------- Iteration    1(   9)  ---------------------------------------


    POTLOK:  cpu time    3.4531: real time    3.4636
    SETDIJ:  cpu time    0.5820: real time    0.5834
    TRIAL :  cpu time  268.2279: real time  269.1089
    CORREC:  cpu time  232.7315: real time  233.4899
    CHARGE:  cpu time    2.9897: real time    2.9992
    --------------------------------------------
      LOOP:  cpu time  507.9845: real time  509.6457

 eigenvalue-minimisations  :     0
 total energy-change (2. order) :-0.1735542E-03  (-0.5464684E-04)
 number of electron     222.0000003 magnetization 
 augmentation part        3.3057677 magnetization 

 Free energy of the ion-electron system (eV)
  ---------------------------------------------------
  alpha Z        PSCENC =         8.34699307
  Ewald energy   TEWEN  =     33381.82952940
  -Hartree energ DENC   =    -39221.46853889
  -exchange      EXHF   =       573.16360911
  -V(xc)+E(xc)   XCENC  =       555.86097528
  PAW double counting   =     22270.99309701   -22286.45910278
  entropy T*S    EENTRO =        -0.00000000
  eigenvalues    EBANDS =     -3065.37741901
  atomic energy  EATOM  =      7132.13241825
  ---------------------------------------------------
  free energy    TOTEN  =      -650.97843855 eV

  energy without entropy =     -650.97843855  energy(sigma->0) =     -650.97843855
  exchange ACFDT corr.  =         0.00000000  see jH, gK, PRB 81, 115126


--------------------------------------------------------------------------------------------------------




----------------------------------------- Iteration    1(  10)  ---------------------------------------


    POTLOK:  cpu time    3.4946: real time    3.5052
    SETDIJ:  cpu time    0.5818: real time    0.5833
    TRIAL :  cpu time  267.4408: real time  268.3148
    CORREC:  cpu time  232.9594: real time  233.7157
    CHARGE:  cpu time    2.9262: real time    2.9359
    --------------------------------------------
      LOOP:  cpu time  507.4031: real time  509.0565

 eigenvalue-minimisations  :     0
 total energy-change (2. order) :-0.5457161E-04  (-0.1941073E-04)
 number of electron     222.0000003 magnetization 
 augmentation part        3.3058657 magnetization 

 Free energy of the ion-electron system (eV)
  ---------------------------------------------------
  alpha Z        PSCENC =         8.34699307
  Ewald energy   TEWEN  =     33381.82952940
  -Hartree energ DENC   =    -39221.60560262
  -exchange      EXHF   =       573.16584261
  -V(xc)+E(xc)   XCENC  =       555.86298966
  PAW double counting   =     22271.88888431   -22287.35569599
  entropy T*S    EENTRO =        -0.00000000
  eigenvalues    EBANDS =     -3065.24385182
  atomic energy  EATOM  =      7132.13241825
  ---------------------------------------------------
  free energy    TOTEN  =      -650.97849312 eV

  energy without entropy =     -650.97849312  energy(sigma->0) =     -650.97849312
  exchange ACFDT corr.  =         0.00000000  see jH, gK, PRB 81, 115126


--------------------------------------------------------------------------------------------------------




----------------------------------------- Iteration    1(  11)  ---------------------------------------


    POTLOK:  cpu time    3.4469: real time    3.4574
    SETDIJ:  cpu time    0.5821: real time    0.5836
    TRIAL :  cpu time  245.9015: real time  246.6679
    CORREC:  cpu time  210.6748: real time  211.2950
    CHARGE:  cpu time    2.7273: real time    2.7349
    --------------------------------------------
      LOOP:  cpu time  463.3331: real time  464.7402

 eigenvalue-minimisations  :     0
 total energy-change (2. order) :-0.1927882E-04  (-0.8189892E-05)
 number of electron     222.0000003 magnetization 
 augmentation part        3.3058948 magnetization 

 Free energy of the ion-electron system (eV)
  ---------------------------------------------------
  alpha Z        PSCENC =         8.34699307
  Ewald energy   TEWEN  =     33381.82952940
  -Hartree energ DENC   =    -39221.62545785
  -exchange      EXHF   =       573.16585144
  -V(xc)+E(xc)   XCENC  =       555.86291844
  PAW double counting   =     22274.32992316   -22289.79674889
  entropy T*S    EENTRO =        -0.00000000
  eigenvalues    EBANDS =     -3065.22393944
  atomic energy  EATOM  =      7132.13241825
  ---------------------------------------------------
  free energy    TOTEN  =      -650.97851240 eV

  energy without entropy =     -650.97851240  energy(sigma->0) =     -650.97851240
  exchange ACFDT corr.  =         0.00000000  see jH, gK, PRB 81, 115126


--------------------------------------------------------------------------------------------------------




----------------------------------------- Iteration    1(  12)  ---------------------------------------


    POTLOK:  cpu time    3.1573: real time    3.1679
    SETDIJ:  cpu time    0.5810: real time    0.5827
    TRIAL :  cpu time  239.5310: real time  240.4217
    CORREC:  cpu time  211.9845: real time  212.6094
    CHARGE:  cpu time    2.7394: real time    2.7473
    --------------------------------------------
      LOOP:  cpu time  457.9937: real time  459.5307

 eigenvalue-minimisations  :     0
 total energy-change (2. order) :-0.8027159E-05  (-0.3918110E-05)
 number of electron     222.0000003 magnetization 
 augmentation part        3.3058949 magnetization 

 Free energy of the ion-electron system (eV)
  ---------------------------------------------------
  alpha Z        PSCENC =         8.34699307
  Ewald energy   TEWEN  =     33381.82952940
  -Hartree energ DENC   =    -39221.59224009
  -exchange      EXHF   =       573.16512767
  -V(xc)+E(xc)   XCENC  =       555.86215039
  PAW double counting   =     22276.54440474   -22292.01095240
  entropy T*S    EENTRO =        -0.00000000
  eigenvalues    EBANDS =     -3065.25595147
  atomic energy  EATOM  =      7132.13241825
  ---------------------------------------------------
  free energy    TOTEN  =      -650.97852043 eV

  energy without entropy =     -650.97852043  energy(sigma->0) =     -650.97852043
  exchange ACFDT corr.  =         0.00000000  see jH, gK, PRB 81, 115126


--------------------------------------------------------------------------------------------------------




----------------------------------------- Iteration    1(  13)  ---------------------------------------


    POTLOK:  cpu time    3.1904: real time    3.2001
    SETDIJ:  cpu time    0.5772: real time    0.5785
    TRIAL :  cpu time  238.1939: real time  238.8971
    CORREC:  cpu time  212.0525: real time  212.6789
    CHARGE:  cpu time    2.6963: real time    2.7037
    --------------------------------------------
      LOOP:  cpu time  456.7107: real time  458.0597

 eigenvalue-minimisations  :     0
 total energy-change (2. order) :-0.3711970E-05  (-0.1853735E-05)
 number of electron     222.0000003 magnetization 
 augmentation part        3.3058839 magnetization 

 Free energy of the ion-electron system (eV)
  ---------------------------------------------------
  alpha Z        PSCENC =         8.34699307
  Ewald energy   TEWEN  =     33381.82952940
  -Hartree energ DENC   =    -39221.59461181
  -exchange      EXHF   =       573.16540370
  -V(xc)+E(xc)   XCENC  =       555.86230876
  PAW double counting   =     22277.94074635   -22293.40710761
  entropy T*S    EENTRO =        -0.00000000
  eigenvalues    EBANDS =     -3065.25420425
  atomic energy  EATOM  =      7132.13241825
  ---------------------------------------------------
  free energy    TOTEN  =      -650.97852414 eV

  energy without entropy =     -650.97852414  energy(sigma->0) =     -650.97852414
  exchange ACFDT corr.  =        -0.00000000  see jH, gK, PRB 81, 115126


--------------------------------------------------------------------------------------------------------




----------------------------------------- Iteration    1(  14)  ---------------------------------------


    POTLOK:  cpu time    3.1486: real time    3.1571
    SETDIJ:  cpu time    0.5853: real time    0.5868
    TRIAL :  cpu time  238.1074: real time  238.8163
    CORREC:  cpu time  211.9257: real time  212.5497
    CHARGE:  cpu time    2.6999: real time    2.7073
    --------------------------------------------
      LOOP:  cpu time  456.4672: real time  457.8181

 eigenvalue-minimisations  :     0
 total energy-change (2. order) :-0.1674911E-05  (-0.9564452E-06)
 number of electron     222.0000003 magnetization 
 augmentation part        3.3058695 magnetization 

 Free energy of the ion-electron system (eV)
  ---------------------------------------------------
  alpha Z        PSCENC =         8.34699307
  Ewald energy   TEWEN  =     33381.82952940
  -Hartree energ DENC   =    -39221.59434934
  -exchange      EXHF   =       573.16550348
  -V(xc)+E(xc)   XCENC  =       555.86233573
  PAW double counting   =     22278.44841409   -22293.91467395
  entropy T*S    EENTRO =        -0.00000000
  eigenvalues    EBANDS =     -3065.25469655
  atomic energy  EATOM  =      7132.13241825
  ---------------------------------------------------
  free energy    TOTEN  =      -650.97852582 eV

  energy without entropy =     -650.97852582  energy(sigma->0) =     -650.97852582
  exchange ACFDT corr.  =        -0.00000000  see jH, gK, PRB 81, 115126


--------------------------------------------------------------------------------------------------------




----------------------------------------- Iteration    1(  15)  ---------------------------------------


    POTLOK:  cpu time    3.1601: real time    3.1690
    SETDIJ:  cpu time    0.5805: real time    0.5819
    TRIAL :  cpu time  238.3492: real time  239.0540
    CORREC:  cpu time  211.8400: real time  212.4612
    CHARGE:  cpu time    2.7272: real time    2.7348
    --------------------------------------------
      LOOP:  cpu time  456.6574: real time  458.0017

 eigenvalue-minimisations  :     0
 total energy-change (2. order) :-0.7809113E-06  (-0.5941045E-06)
 number of electron     222.0000003 magnetization 
 augmentation part        3.3058527 magnetization 

 Free energy of the ion-electron system (eV)
  ---------------------------------------------------
  alpha Z        PSCENC =         8.34699307
  Ewald energy   TEWEN  =     33381.82952940
  -Hartree energ DENC   =    -39221.58558713
  -exchange      EXHF   =       573.16536811
  -V(xc)+E(xc)   XCENC  =       555.86215913
  PAW double counting   =     22278.37571726   -22293.84192657
  entropy T*S    EENTRO =        -0.00000000
  eigenvalues    EBANDS =     -3065.26319813
  atomic energy  EATOM  =      7132.13241825
  ---------------------------------------------------
  free energy    TOTEN  =      -650.97852660 eV

  energy without entropy =     -650.97852660  energy(sigma->0) =     -650.97852660
  exchange ACFDT corr.  =        -0.00000000  see jH, gK, PRB 81, 115126


--------------------------------------------------------------------------------------------------------


  average scaling for gradient   1.3743


 average (electrostatic) potential at core
  the test charge radii are     0.6991  0.5201  0.9698
  (the norm of the test charge is              1.0000)
       1 -53.9176       2 -54.0204       3 -53.9959       4 -54.0353       5 -54.1642
       6 -54.6038       7 -55.0603       8 -54.2090       9 -54.3465      10 -55.1196
      11 -54.8562      12 -54.6438      13 -54.2023      14 -54.4523      15 -54.3120
      16 -54.3168      17 -54.3332      18 -54.3283      19 -54.4428      20 -54.1885
      21 -54.6222      22 -54.8408      23 -55.1444      24 -54.3451      25 -54.3194
      26 -55.2041      27 -54.6369      28 -54.1971      29 -54.0617      30 -54.0338
      31 -54.0149      32 -53.8637      33 -54.5719      34 -54.1394      35 -54.4365
      36 -54.2909      37 -54.2592      38 -54.3227      39 -54.2475      40 -54.4335
      41 -54.1905      42 -54.5987      43 -36.7416      44 -36.9353      45 -36.5987
      46 -36.6877      47 -36.6984      48 -36.9190      49 -36.9364      50 -36.8354
      51 -36.8250      52 -36.7365      53 -37.1062      54 -37.2358      55 -37.4475
      56 -37.1117      57 -37.0579      58 -37.3083      59 -37.3733      60 -37.3626
      61 -37.4260      62 -37.4637      63 -37.3682      64 -37.0453      65 -37.1556
      66 -37.2245      67 -37.1999      68 -36.7904      69 -36.9079      70 -36.8587
      71 -36.7244      72 -36.7865      73 -36.9284      74 -36.6223      75 -36.8275
      76 -36.7650      77 -36.9448      78 -36.6876      79 -37.2720      80 -37.4324
      81 -37.3324      82 -37.2724      83 -37.3890      84 -37.5299      85 -92.5038
      86 -92.5925
 
 
 
 E-fermi :  -4.1642     XC(G=0):  -0.2877     alpha+bet : -0.2140


 k-point     1 :       0.0000    0.0000    0.0000
  band No.  band energies     occupation 
      1     -25.5512      2.00000
      2     -24.9137      2.00000
      3     -24.8699      2.00000
      4     -24.6764      2.00000
      5     -24.2201      2.00000
      6     -23.2171      2.00000
      7     -23.1905      2.00000
      8     -23.1222      2.00000
      9     -22.7935      2.00000
     10     -22.1555      2.00000
     11     -22.0129      2.00000
     12     -21.9391      2.00000
     13     -21.8379      2.00000
     14     -21.3952      2.00000
     15     -20.9925      2.00000
     16     -20.7723      2.00000
     17     -20.5693      2.00000
     18     -20.4143      2.00000
     19     -20.3001      2.00000
     20     -20.0361      2.00000
     21     -19.6358      2.00000
     22     -19.3726      2.00000
     23     -19.0132      2.00000
     24     -18.8684      2.00000
     25     -18.4223      2.00000
     26     -18.1470      2.00000
     27     -17.4723      2.00000
     28     -17.3822      2.00000
     29     -17.1816      2.00000
     30     -16.9363      2.00000
     31     -16.8516      2.00000
     32     -16.6324      2.00000
     33     -16.5246      2.00000
     34     -16.1099      2.00000
     35     -15.6528      2.00000
     36     -15.6373      2.00000
     37     -15.3036      2.00000
     38     -15.1576      2.00000
     39     -15.1472      2.00000
     40     -14.8344      2.00000
     41     -14.5540      2.00000
     42     -14.3909      2.00000
     43     -14.3260      2.00000
     44     -13.9913      2.00000
     45     -13.8568      2.00000
     46     -13.5657      2.00000
     47     -13.4205      2.00000
     48     -13.2535      2.00000
     49     -13.0637      2.00000
     50     -12.9625      2.00000
     51     -12.9079      2.00000
     52     -12.7990      2.00000
     53     -12.7608      2.00000
     54     -12.6882      2.00000
     55     -12.5344      2.00000
     56     -12.4824      2.00000
     57     -12.2310      2.00000
     58     -12.1052      2.00000
     59     -12.0184      2.00000
     60     -11.9487      2.00000
     61     -11.8657      2.00000
     62     -11.7514      2.00000
     63     -11.7090      2.00000
     64     -11.6197      2.00000
     65     -11.4879      2.00000
     66     -11.4148      2.00000
     67     -11.3316      2.00000
     68     -11.2872      2.00000
     69     -11.2255      2.00000
     70     -11.1374      2.00000
     71     -10.9730      2.00000
     72     -10.9647      2.00000
     73     -10.8748      2.00000
     74     -10.8189      2.00000
     75     -10.5946      2.00000
     76     -10.4715      2.00000
     77     -10.3750      2.00000
     78     -10.3397      2.00000
     79     -10.1309      2.00000
     80     -10.0686      2.00000
     81      -9.9910      2.00000
     82      -9.8828      2.00000
     83      -9.8063      2.00000
     84      -9.7353      2.00000
     85      -9.7241      2.00000
     86      -9.5964      2.00000
     87      -9.4997      2.00000
     88      -9.4071      2.00000
     89      -9.3743      2.00000
     90      -9.2808      2.00000
     91      -9.1239      2.00000
     92      -9.0666      2.00000
     93      -9.0044      2.00000
     94      -8.9900      2.00000
     95      -8.9531      2.00000
     96      -8.9105      2.00000
     97      -8.7983      2.00000
     98      -8.7050      2.00000
     99      -8.6383      2.00000
    100      -8.5406      2.00000
    101      -8.5243      2.00000
    102      -8.1180      2.00000
    103      -7.9551      2.00000
    104      -7.4943      2.00000
    105      -7.0327      2.00000
    106      -7.0130      2.00000
    107      -6.9898      2.00000
    108      -6.3895      2.00000
    109      -6.1014      2.00000
    110      -5.9888      2.00000
    111      -4.4328      2.00000
    112      -2.6650      0.00000
    113      -0.9769      0.00000
    114      -0.8301      0.00000
    115      -0.4591      0.00000
    116      -0.1986      0.00000
    117      -0.1712      0.00000
    118      -0.0233      0.00000
    119      -0.0095      0.00000
    120       0.0357      0.00000
    121       0.1059      0.00000
    122       0.1471      0.00000
    123       0.1676      0.00000
    124       0.2228      0.00000
    125       0.2246      0.00000
    126       0.2320      0.00000
    127       0.2639      0.00000
    128       0.3065      0.00000
    129       0.3391      0.00000
    130       0.3478      0.00000
    131       0.3637      0.00000
    132       0.3766      0.00000
    133       0.3938      0.00000
    134       0.4052      0.00000
    135       0.4106      0.00000
    136       0.4202      0.00000
    137       0.4529      0.00000
    138       0.4689      0.00000
    139       0.4727      0.00000
    140       0.5132      0.00000
    141       0.5341      0.00000
    142       0.5447      0.00000
    143       0.5568      0.00000
    144       0.5619      0.00000
    145       0.5797      0.00000
    146       0.5968      0.00000
    147       0.6252      0.00000
    148       0.6807      0.00000
    149       0.7197      0.00000
    150       0.7253      0.00000
    151       0.8226      0.00000
    152       0.8301      0.00000
    153       0.8724      0.00000
    154       0.9064      0.00000
    155       0.9399      0.00000
    156       1.0167      0.00000


--------------------------------------------------------------------------------------------------------


 soft charge-density along one line, spin component           1
         0         1         2         3         4         5         6         7         8         9
 total charge-density along one line
 
 pseudopotential strength for first ion, spin component:           1
  9.916  13.184   0.001   0.000   0.001  -0.001  -0.000  -0.003
 13.184  17.527   0.001   0.000   0.002  -0.001  -0.000  -0.004
  0.001   0.001  -4.153  -0.001  -0.000   8.101   0.001   0.000
  0.000   0.000  -0.001  -4.154  -0.001   0.001   8.104   0.002
  0.001   0.002  -0.000  -0.001  -4.152   0.000   0.002   8.101
 -0.001  -0.001   8.101   0.001   0.000 -17.919  -0.002   0.000
 -0.000  -0.000   0.001   8.104   0.002  -0.002 -17.923  -0.003
 -0.003  -0.004   0.000   0.002   8.101   0.000  -0.003 -17.918
 total augmentation occupancy for first ion, spin component:           1
  8.451  -3.789  -0.028   0.014   0.023  -0.010   0.009   0.004
 -3.789   1.717   0.014  -0.012  -0.028   0.007  -0.007  -0.003
 -0.028   0.014   1.611  -0.004   0.007   0.141  -0.002   0.002
  0.014  -0.012  -0.004   1.623   0.012  -0.002   0.144   0.002
  0.023  -0.028   0.007   0.012   1.579   0.002   0.002   0.133
 -0.010   0.007   0.141  -0.002   0.002   0.013  -0.001   0.000
  0.009  -0.007  -0.002   0.144   0.002  -0.001   0.013   0.000
  0.004  -0.003   0.002   0.002   0.133   0.000   0.000   0.011


------------------------ aborting loop because EDIFF is reached ----------------------------------------


    FORLOC:  cpu time    1.9412: real time    1.9465
    FORHF :  cpu time  191.7083: real time  192.3001
    FORNL :  cpu time   37.7922: real time   37.9140
    FORCOR:  cpu time    4.4208: real time    4.4339
    OFIELD:  cpu time    0.0070: real time    0.0070

  Hirshfeld charges:
            ion         q(e)     
   ------------------------------
      1     C          -0.111
      2     C          -0.067
      3     C          -0.071
      4     C          -0.067
      5     C          -0.068
      6     C          -0.062
      7     C          -0.022
      8     C          -0.089
      9     C          -0.067
     10     C          -0.022
     11     C           0.001
     12     C          -0.005
     13     C          -0.044
     14     C          -0.007
     15     C          -0.043
     16     C          -0.051
     17     C          -0.050
     18     C          -0.043
     19     C          -0.008
     20     C          -0.042
     21     C          -0.004
     22     C          -0.002
     23     C          -0.016
     24     C          -0.074
     25     C          -0.082
     26     C          -0.011
     27     C          -0.065
     28     C          -0.069
     29     C          -0.067
     30     C          -0.068
     31     C          -0.067
     32     C          -0.112
     33     C          -0.010
     34     C          -0.047
     35     C          -0.007
     36     C          -0.041
     37     C          -0.052
     38     C          -0.049
     39     C          -0.045
     40     C          -0.005
     41     C          -0.050
     42     C          -0.008
     43     H           0.037
     44     H           0.039
     45     H           0.034
     46     H           0.035
     47     H           0.036
     48     H           0.038
     49     H           0.037
     50     H           0.039
     51     H           0.037
     52     H           0.034
     53     H           0.043
     54     H           0.044
     55     H           0.048
     56     H           0.045
     57     H           0.049
     58     H           0.036
     59     H           0.047
     60     H           0.047
     61     H           0.049
     62     H           0.048
     63     H           0.036
     64     H           0.050
     65     H           0.047
     66     H           0.047
     67     H           0.043
     68     H           0.037
     69     H           0.038
     70     H           0.039
     71     H           0.035
     72     H           0.035
     73     H           0.036
     74     H           0.035
     75     H           0.037
     76     H           0.037
     77     H           0.035
     78     H           0.038
     79     H           0.013
     80     H           0.052
     81     H           0.046
     82     H           0.047
     83     H           0.047
     84     H           0.023
     85     S           0.102
     86     S           0.108

  Atomic reference data used in the T-S method for vdW correction:
            C6at              R0at           ALPHAat      REFSTATE
            (au)              (au)            (au)                
   ---------------------------------------------------------------
   C          46.600          3.590         12.000         0
   H           6.500          3.099          4.500         0
   S         134.000          3.855         19.600         0

  Tkatchenko/Scheffler method for vdW energy calculation
  ---------------------------------------------------------------------------------------------

  Parameters of vdW forcefield:
            C6ts              R0ts           ALPHAts        RELVOL
            (au)              (au)            (au)                
   ---------------------------------------------------------------
   C          27.583          3.290          9.232          0.769
   C          29.000          3.318          9.466          0.789
   C          29.736          3.331          9.586          0.799
   C          29.924          3.335          9.616          0.801
   C          29.855          3.334          9.605          0.800
   C          30.313          3.342          9.678          0.807
   C          33.884          3.405         10.233          0.853
   C          31.774          3.368          9.909          0.826
   C          32.405          3.380         10.007          0.834
   C          35.253          3.427         10.437          0.870
   C          33.524          3.399         10.178          0.848
   C          32.973          3.389         10.094          0.841
   C          31.593          3.365          9.881          0.823
   C          32.560          3.382         10.031          0.836
   C          30.584          3.347          9.721          0.810
   C          30.247          3.341          9.668          0.806
   C          30.109          3.338          9.646          0.804
   C          30.454          3.345          9.701          0.808
   C          32.568          3.382         10.032          0.836
   C          31.502          3.364          9.866          0.822
   C          32.919          3.388         10.086          0.840
   C          33.405          3.397         10.160          0.847
   C          34.875          3.421         10.381          0.865
   C          32.133          3.375          9.965          0.830
   C          31.910          3.371          9.930          0.827
   C          34.351          3.413         10.303          0.859
   C          30.673          3.349          9.736          0.811
   C          30.280          3.342          9.673          0.806
   C          30.021          3.337          9.632          0.803
   C          30.018          3.337          9.631          0.803
   C          28.877          3.315          9.446          0.787
   C          27.317          3.285          9.188          0.766
   C          33.197          3.393         10.128          0.844
   C          32.295          3.378          9.990          0.832
   C          32.701          3.385         10.052          0.838
   C          30.582          3.347          9.721          0.810
   C          30.329          3.342          9.681          0.807
   C          30.382          3.343          9.689          0.807
   C          30.545          3.346          9.715          0.810
   C          32.611          3.383         10.038          0.837
   C          32.036          3.373          9.950          0.829
   C          33.178          3.393         10.125          0.844
   H           2.488          2.641          2.784          0.619
   H           2.391          2.623          2.729          0.606
   H           2.306          2.608          2.680          0.596
   H           2.356          2.617          2.709          0.602
   H           2.482          2.640          2.781          0.618
   H           2.494          2.642          2.787          0.619
   H           2.733          2.682          2.918          0.648
   H           2.523          2.647          2.803          0.623
   H           2.801          2.694          2.954          0.656
   H           2.681          2.674          2.890          0.642
   H           2.607          2.661          2.850          0.633
   H           2.852          2.702          2.981          0.662
   H           2.625          2.665          2.860          0.636
   H           2.557          2.653          2.822          0.627
   H           2.820          2.697          2.964          0.659
   H           3.243          2.760          3.178          0.706
   H           2.508          2.644          2.795          0.621
   H           2.352          2.616          2.707          0.602
   H           2.324          2.611          2.691          0.598
   H           2.493          2.642          2.787          0.619
   H           3.235          2.759          3.175          0.705
   H           2.754          2.686          2.929          0.651
   H           2.547          2.651          2.817          0.626
   H           2.792          2.692          2.949          0.655
   H           2.678          2.673          2.888          0.642
   H           2.804          2.694          2.955          0.657
   H           2.737          2.683          2.920          0.649
   H           2.740          2.684          2.922          0.649
   H           2.628          2.665          2.861          0.636
   H           2.702          2.677          2.902          0.645
   H           2.643          2.667          2.869          0.638
   H           2.370          2.619          2.717          0.604
   H           2.444          2.633          2.760          0.613
   H           2.237          2.594          2.640          0.587
   H           2.588          2.658          2.839          0.631
   H           2.334          2.613          2.697          0.599
   H           3.737          2.826          3.412          0.758
   H           2.558          2.653          2.823          0.627
   H           2.386          2.622          2.726          0.606
   H           2.402          2.625          2.735          0.608
   H           2.572          2.655          2.831          0.629
   H           3.628          2.812          3.362          0.747
   S         106.907          3.713         17.507          0.893
   S         106.767          3.712         17.495          0.893

  IVDW =   2
  VDW_RADIUS =    50.000 A
  VDW_IDAMPF =  0
  VDW_S6 =     1.000
  VDW_SR =     0.940
  VDW_D =    20.000
  LVDW_ONECELL = F F F
  LVDW_SAMETYPE T T T
  LVDW_EWALD = F

  Number of pair interactions contributing to vdW energy:   77327
  Edisp (eV):   -1.49456
    FORVDW:  cpu time   17.9159: real time   17.9668

 VOLUME and BASIS-vectors are now :
 -----------------------------------------------------------------------------
  energy-cutoff  :      500.00
  volume of cell :    27000.00
      direct lattice vectors                 reciprocal lattice vectors
    30.000000000  0.000000000  0.000000000     0.033333333  0.000000000  0.000000000
     0.000000000 30.000000000  0.000000000     0.000000000  0.033333333  0.000000000
     0.000000000  0.000000000 30.000000000     0.000000000  0.000000000  0.033333333

  length of vectors
    30.000000000 30.000000000 30.000000000     0.033333333  0.033333333  0.033333333


 FORCES acting on ions:
    Electron-Ion                     Ewald-Force                    Non-Local-Force
 -----------------------------------------------------------------------------------------------
   -.125E+03 -.939E+02 0.979E+02   0.125E+03 0.941E+02 -.978E+02   0.146E+01 0.614E+00 -.122E-01
   -.163E+03 0.711E+02 -.543E+02   0.163E+03 -.718E+02 0.547E+02   0.898E+00 0.377E+00 -.100E+00
   -.715E+02 0.136E+03 -.130E+02   0.719E+02 -.136E+03 0.129E+02   0.392E+00 -.300E+00 0.134E+00
   -.880E+02 -.115E+03 -.850E+02   0.879E+02 0.116E+03 0.849E+02   -.136E+00 0.152E+00 0.534E+00
   -.247E+02 -.505E+02 -.141E+03   0.249E+02 0.514E+02 0.142E+03   -.155E+00 0.104E+01 -.105E+01
   -.111E+03 -.614E+00 0.116E+03   0.113E+03 0.678E+00 -.115E+03   -.294E+01 -.110E+01 -.240E+00
   -.134E+03 -.252E+02 0.526E+02   0.137E+03 0.236E+02 -.521E+02   -.411E+01 0.181E+01 -.929E+00
   -.155E+03 0.220E+03 -.444E+02   0.158E+03 -.222E+03 0.452E+02   0.791E+00 -.128E+00 0.749E-01
   -.493E+02 0.218E+03 -.699E+02   0.455E+02 -.219E+03 0.704E+02   -.147E+01 0.136E+01 -.291E+00
   -.869E+02 -.184E+02 0.393E+02   0.860E+02 0.148E+02 -.388E+02   0.397E+01 0.174E+01 0.277E+00
   -.882E+02 -.149E+02 0.361E+02   0.875E+02 0.157E+02 -.359E+02   0.261E+01 -.975E+00 -.298E+00
   -.494E+02 0.597E+02 0.479E+02   0.505E+02 -.599E+02 -.482E+02   -.401E+00 0.304E+00 0.711E-01
   -.156E+03 0.111E+03 0.104E+03   0.158E+03 -.111E+03 -.105E+03   -.154E+01 -.253E+00 -.524E-01
   -.762E+02 0.125E+03 0.974E+02   0.780E+02 -.124E+03 -.970E+02   0.145E+00 -.943E-01 0.194E+00
   -.179E+03 0.171E+03 0.133E+03   0.180E+03 -.172E+03 -.134E+03   -.812E+00 -.751E+00 -.417E+00
   -.709E+02 0.249E+03 0.174E+03   0.731E+02 -.249E+03 -.174E+03   0.467E+00 0.795E+00 0.526E+00
   0.129E+03 0.239E+03 0.153E+03   -.131E+03 -.239E+03 -.152E+03   0.211E+00 0.750E+00 0.511E+00
   0.215E+03 0.150E+03 0.888E+02   -.217E+03 -.152E+03 -.898E+02   0.867E+00 -.886E+00 -.611E+00
   0.100E+03 0.117E+03 0.774E+02   -.102E+03 -.116E+03 -.765E+02   -.366E+00 0.447E+00 0.512E+00
   0.179E+03 0.961E+02 0.618E+02   -.181E+03 -.967E+02 -.622E+02   0.140E+01 -.295E+00 -.215E+00
   0.559E+02 0.580E+02 0.329E+02   -.570E+02 -.588E+02 -.334E+02   -.775E+00 -.597E-01 -.803E-01
   0.964E+02 -.104E+02 0.124E+02   -.961E+02 0.104E+02 -.125E+02   -.150E+01 0.343E+00 0.751E+00
   0.798E+02 -.231E+02 0.758E+01   -.784E+02 0.215E+02 -.768E+01   -.234E+01 0.359E+01 -.201E+00
   0.753E+02 0.211E+03 -.102E+03   -.730E+02 -.215E+03 0.103E+03   0.106E+01 -.322E+00 -.201E+00
   0.175E+03 0.183E+03 -.116E+03   -.179E+03 -.183E+03 0.117E+03   -.155E+01 0.125E+01 -.272E+00
   0.109E+03 -.553E+02 -.447E+02   -.111E+03 0.527E+02 0.460E+02   0.421E+01 0.114E+01 -.117E+01
   0.861E+02 -.787E+02 -.119E+03   -.883E+02 0.795E+02 0.120E+03   0.265E+01 -.300E+00 0.487E+00
   0.495E+02 0.221E+01 0.138E+03   -.499E+02 -.257E+01 -.139E+03   0.168E+00 -.357E+00 0.520E+00
   0.833E+02 -.107E+03 0.101E+03   -.835E+02 0.107E+03 -.101E+03   -.423E+00 0.395E+00 0.181E+00
   0.644E+02 0.645E+02 -.105E+03   -.647E+02 -.643E+02 0.105E+03   -.263E+00 -.516E+00 -.940E-01
   0.135E+03 -.524E+02 -.116E+03   -.135E+03 0.523E+02 0.117E+03   -.523E+00 -.581E+00 -.675E-01
   0.154E+03 -.332E+01 0.944E+02   -.154E+03 0.365E+01 -.945E+02   -.713E+00 0.238E+00 -.802E+00
   0.485E+02 -.617E+02 -.253E+02   -.499E+02 0.628E+02 0.263E+02   0.277E+00 0.859E+00 0.920E-01
   0.152E+03 -.113E+03 -.754E+02   -.154E+03 0.113E+03 0.759E+02   0.140E+01 -.590E+00 -.550E+00
   0.677E+02 -.132E+03 -.813E+02   -.697E+02 0.131E+03 0.809E+02   -.114E+01 -.710E+00 -.446E+00
   0.184E+03 -.172E+03 -.117E+03   -.185E+03 0.173E+03 0.118E+03   0.142E+01 0.854E+00 0.398E+00
   0.708E+02 -.260E+03 -.161E+03   -.727E+02 0.260E+03 0.162E+03   -.159E+00 -.655E+00 -.387E+00
   -.116E+03 -.254E+03 -.142E+03   0.118E+03 0.254E+03 0.142E+03   -.104E+00 -.562E+00 -.328E+00
   -.208E+03 -.165E+03 -.789E+02   0.210E+03 0.167E+03 0.797E+02   -.772E+00 0.719E+00 0.484E+00
   -.973E+02 -.121E+03 -.596E+02   0.996E+02 0.120E+03 0.588E+02   0.289E+00 0.193E+00 0.130E-01
   -.183E+03 -.105E+03 -.366E+02   0.185E+03 0.106E+03 0.372E+02   -.270E+01 0.307E+00 0.228E+00
   -.554E+02 -.622E+02 -.128E+02   0.566E+02 0.624E+02 0.129E+02   0.582E+00 -.138E+01 -.122E+01
   -.157E+02 -.762E+02 -.798E+01   0.145E+02 0.802E+02 0.932E+01   0.104E+01 -.459E+01 -.183E+01
   -.505E+01 -.446E+01 0.779E+02   0.302E+01 0.380E+01 -.826E+02   0.197E+01 0.790E+00 0.484E+01
   -.731E+02 -.124E+02 0.176E+02   0.772E+02 0.126E+02 -.182E+02   -.489E+01 -.458E-01 0.348E+00
   -.580E+02 0.654E+02 0.857E+01   0.607E+02 -.695E+02 -.963E+01   -.295E+01 0.411E+01 0.119E+01
   -.487E+02 -.108E+02 -.716E+02   0.501E+02 0.121E+02 0.759E+02   -.169E+01 -.159E+01 -.452E+01
   -.113E+02 0.735E+02 -.549E+02   0.103E+02 -.777E+02 0.587E+02   0.836E+00 0.387E+01 -.365E+01
   -.102E+02 0.505E+02 0.636E+02   0.891E+01 -.523E+02 -.683E+02   0.122E+01 0.200E+01 0.470E+01
   -.313E+02 -.352E+02 -.843E+02   0.329E+02 0.368E+02 0.889E+02   -.142E+01 -.135E+01 -.483E+01
   -.247E+02 -.775E+02 0.286E+02   0.257E+02 0.812E+02 -.314E+02   -.105E+01 -.402E+01 0.304E+01
   0.853E+01 -.762E+02 -.371E+02   -.107E+02 0.801E+02 0.382E+02   0.210E+01 -.451E+01 -.841E+00
   0.818E+00 0.398E+02 -.820E+02   -.237E+01 -.435E+02 0.863E+02   0.125E+01 0.350E+01 -.410E+01
   -.439E+02 0.699E+02 0.371E+02   0.459E+02 -.744E+02 -.384E+02   -.219E+01 0.466E+01 0.108E+01
   -.349E+02 -.475E+02 0.762E+02   0.365E+02 0.513E+02 -.805E+02   -.142E+01 -.341E+01 0.414E+01
   -.510E+02 0.884E+02 -.210E+02   0.534E+02 -.919E+02 0.220E+02   -.272E+01 0.411E+01 -.112E+01
   -.110E+00 0.903E+02 -.395E+02   -.173E+01 -.934E+02 0.404E+02   0.269E+01 0.405E+01 -.118E+01
   -.794E+02 0.351E+02 0.458E+02   0.860E+02 -.354E+02 -.470E+02   -.585E+01 0.512E+00 0.113E+01
   -.853E+02 0.427E+02 0.367E+02   0.916E+02 -.431E+02 -.375E+02   -.569E+01 0.516E+00 0.740E+00
   -.339E+02 0.826E+02 0.581E+02   0.365E+02 -.871E+02 -.613E+02   -.245E+01 0.422E+01 0.296E+01
   0.508E+02 0.792E+02 0.496E+02   -.545E+02 -.835E+02 -.523E+02   0.322E+01 0.409E+01 0.248E+01
   0.938E+02 0.327E+02 0.162E+02   -.100E+03 -.323E+02 -.155E+02   0.584E+01 -.262E+00 -.573E+00
   0.877E+02 0.271E+02 0.234E+02   -.946E+02 -.266E+02 -.230E+02   0.603E+01 -.353E+00 -.335E+00
   0.660E+01 0.909E+02 -.434E+02   -.510E+01 -.943E+02 0.441E+02   -.197E+01 0.445E+01 -.927E+00
   0.584E+02 0.738E+02 -.413E+02   -.606E+02 -.764E+02 0.426E+02   0.326E+01 0.329E+01 -.167E+01
   0.380E+02 0.244E+02 -.801E+02   -.397E+02 -.266E+02 0.836E+02   0.210E+01 0.238E+01 -.398E+01
   0.146E+02 -.848E+02 -.389E+02   -.144E+02 0.894E+02 0.402E+02   -.645E-01 -.492E+01 -.145E+01
   0.225E+02 0.736E+02 0.375E+02   -.226E+02 -.778E+02 -.386E+02   0.326E+00 0.491E+01 0.852E+00
   -.874E+01 -.394E+02 0.792E+02   0.113E+02 0.415E+02 -.833E+02   -.255E+01 -.246E+01 0.398E+01
   0.378E+02 -.487E+01 0.813E+02   -.401E+02 0.435E+01 -.856E+02   0.265E+01 0.779E+00 0.443E+01
   0.163E+02 -.905E+02 0.192E+01   -.163E+02 0.947E+02 -.125E+01   0.162E+00 -.482E+01 -.945E+00
   0.234E+02 0.827E+02 0.350E+01   -.236E+02 -.874E+02 -.454E+01   0.484E+00 0.482E+01 0.144E+01
   -.478E+00 0.369E+01 -.836E+02   0.282E+01 -.351E+01 0.883E+02   -.228E+01 -.225E+00 -.479E+01
   0.496E+02 0.308E+02 -.642E+02   -.517E+02 -.329E+02 0.676E+02   0.232E+01 0.283E+01 -.349E+01
   0.265E+02 -.766E+02 -.347E+02   -.266E+02 0.816E+02 0.363E+02   0.136E+00 -.513E+01 -.126E+01
   0.705E+02 0.244E+02 0.174E+01   -.750E+02 -.263E+02 -.110E+01   0.468E+01 0.208E+01 -.826E+00
   0.819E+01 0.428E+02 0.602E+02   -.563E+01 -.463E+02 -.637E+02   -.256E+01 0.329E+01 0.337E+01
   0.330E+02 -.588E+02 0.447E+02   -.336E+02 0.625E+02 -.470E+02   0.610E+00 -.434E+01 0.243E+01
   0.723E+02 -.373E+02 -.331E+02   -.783E+02 0.377E+02 0.341E+02   0.579E+01 -.110E+00 -.690E+00
   0.838E+02 -.435E+02 -.329E+02   -.899E+02 0.437E+02 0.334E+02   0.567E+01 -.457E+00 -.694E+00
   0.369E+02 -.847E+02 -.540E+02   -.397E+02 0.895E+02 0.571E+02   0.279E+01 -.421E+01 -.275E+01
   -.482E+02 -.827E+02 -.459E+02   0.515E+02 0.868E+02 0.482E+02   -.312E+01 -.409E+01 -.223E+01
   -.908E+02 -.365E+02 -.134E+02   0.974E+02 0.364E+02 0.128E+02   -.581E+01 0.335E+00 0.632E+00
   -.808E+02 -.336E+02 -.121E+02   0.871E+02 0.334E+02 0.117E+02   -.591E+01 0.246E+00 0.486E+00
   0.131E+03 -.313E+03 0.107E+03   -.130E+03 0.321E+03 -.108E+03   -.105E+01 -.696E+01 0.129E+01
   -.156E+03 -.294E+03 0.162E+03   0.157E+03 0.302E+03 -.164E+03   -.877E+00 -.592E+01 0.114E+01
 -----------------------------------------------------------------------------------------------
   0.107E+01 -.103E+02 0.613E+01   0.313E-12 0.512E-12 0.171E-12   -.942E+00 0.105E+02 -.601E+01
 
 
 POSITION                                       TOTAL-FORCE (eV/Angst)
 -----------------------------------------------------------------------------------
     26.53264     15.72452     14.51793         1.741791      0.903560      0.072512
     26.20590     14.63061     15.50251         0.741018     -0.268706      0.290795
     24.73031     14.30403     15.52272         0.817245     -0.333139      0.057747
     23.95699     15.52708     15.90956        -0.296162      0.470686      0.466771
     22.46659     15.27742     15.95242         0.059107      1.987545     -0.392661
     21.97502     14.83621     14.59368        -1.097269     -1.111804      0.085848
     20.49094     14.58573     14.62495        -0.930370      0.268654     -0.514421
     19.87837     13.41334     14.91403         3.674467     -2.884947      0.822082
     18.54711     13.34238     14.90212        -5.316010     -0.108149      0.120183
     17.84131     14.55293     14.57103         3.288897     -1.744691      0.823613
     16.40217     14.75212     14.60236         2.062717     -0.264757     -0.090902
     15.63849     13.72843     14.06336         0.655686      0.068533     -0.225183
     16.15781     12.68475     13.33339         0.247651     -1.058452     -0.941701
     15.37094     11.70204     12.73808         1.945518      0.873216      0.601234
     15.91730     10.66524     12.01466        -0.030216     -2.347494     -1.609108
     15.10312      9.68994     11.42622         2.676994      0.971537      0.456994
     13.74556      9.75730     11.56486        -1.977324      1.135804      0.880230
     13.19353     10.80972     12.29900        -0.311814     -2.465727     -1.657712
     14.00632     11.75848     12.86994        -1.885267      1.732094      1.434232
     13.47117     12.81622     13.60630         0.086439     -0.863846     -0.667677
     14.25131     13.79354     14.20192        -1.958378     -0.873852     -0.569114
     13.63278     14.83995     14.85379        -1.292793      0.300727      0.616997
     12.19679     14.83624     15.12085        -1.098323      2.211795     -0.296974
     11.39798     13.86035     15.57955         3.451473     -4.225188      0.378303
     10.10997     14.08755     15.83075        -5.519593      0.978816      1.035233
      9.64168     15.39302     15.59247         2.902482     -1.412488      0.080279
      8.26763     15.92376     15.78483         0.574157      0.553006      1.132875
      7.47101     15.75098     14.52963        -0.219708     -0.734961     -0.833277
      6.07027     16.26641     14.64383        -0.592597      0.908568      0.132222
      5.30173     15.55735     15.73310        -0.550958     -0.344883     -0.043296
      3.88175     16.08743     15.83834        -0.235012     -0.688024      0.888345
      3.13693     15.89012     14.54553        -1.103758      0.582456     -0.929495
     14.43111     15.83689     15.36963        -1.096272      2.057505      1.087901
     13.89762     16.92252     16.06543        -0.371505     -0.415831     -0.043532
     14.67791     17.92341     16.61156        -3.247260     -1.641625     -0.825075
     14.03530     18.94605     17.27563         0.687273      2.545437      1.512859
     14.81755     19.95186     17.82436        -2.051178     -0.756428     -0.301547
     16.19251     19.90723     17.69591         1.835924     -0.451616     -0.401840
     16.79442     18.85721     17.01835         0.368878      2.165319      1.302015
     16.03174     17.85452     16.47011         2.701258     -0.837988     -0.785826
     16.63808     16.79856     15.78870        -1.118339      1.279340      0.890574
     15.81999     15.83095     15.26442         1.775240     -1.353390     -1.190316
     26.27996     16.73875     14.91743        -0.062783     -0.772150     -0.564311
     26.10968     15.55673     13.51522         0.035052      0.168053      0.317158
     27.65739     15.73452     14.42904        -1.005238      0.171618     -0.237629
     26.82345     13.74728     15.24380        -0.405613      0.199774      0.200629
     26.56377     14.97897     16.50092        -0.337420     -0.384716     -0.436884
     24.55006     13.52048     16.26405        -0.139574     -0.151258     -0.053528
     24.46166     13.89734     14.53325        -0.054616      0.202690      0.279005
     24.26604     15.81168     16.93303         0.104247      0.105529     -0.401067
     24.17885     16.38974     15.24133        -0.179505     -0.569013      0.384891
     21.99207     16.27356     16.14803         0.046705     -0.855862      0.279122
     22.21959     14.57645     16.74750        -0.250568     -0.085622     -0.058071
     22.43220     13.85359     14.36485        -0.261179      0.466365     -0.117534
     22.25354     15.51928     13.79381         0.088837      0.214594      0.059455
     20.48608     12.50402     15.16261        -0.530497      0.866800     -0.221091
     17.95072     12.41629     15.16933         0.986947      1.202529     -0.285272
     17.20352     12.59626     13.13627         0.414700      0.218359      0.014442
     16.98297     10.57946     11.88412         0.277468      0.097816      0.037554
     15.56203      8.88834     10.86442         0.050427     -0.069624     -0.028486
     13.13918      8.99597     11.10341        -0.351991     -0.030780      0.001692
     12.13145     10.86674     12.41034        -0.527043      0.111370      0.096325
     12.41131     12.87694     13.66788        -0.578873      0.104994      0.012125
     11.84363     12.83825     15.78785        -0.580596      1.276459     -0.227567
      9.36876     13.32003     16.21727         1.191036      0.872427     -0.455782
      7.80458     15.38609     16.65154         0.424676      0.302676     -0.725736
      8.28855     16.99771     16.08650         0.061758     -0.576910     -0.213794
      7.39968     14.64493     14.33395         0.305965      0.925900     -0.215350
      8.00118     16.25973     13.70720        -0.110317     -0.422639      0.084775
      5.51287     16.09777     13.70056         0.473908      0.294033      0.296270
      6.04502     17.37175     14.86262         0.149889     -0.780495     -0.332557
      5.20334     14.49016     15.41999         0.259513      0.401136      0.485111
      5.78822     15.60712     16.71910        -0.039109     -0.079888     -0.346537
      3.36780     15.47179     16.61903         0.332618      0.826145     -0.266538
      3.86125     17.15606     16.10836         0.043798     -0.405866      0.253828
      2.13612     15.45000     14.72483         0.405207      0.355709     -0.227045
      3.66981     15.21805     13.86697        -0.124344     -0.031568      0.032842
      3.00269     16.86161     14.00273        -0.009900     -0.853925      0.286934
     12.82813     16.94913     16.18888         0.110876      0.270506      0.265121
     12.96343     19.01316     17.39517        -0.078075     -0.315937     -0.182649
     14.30878     20.74819     18.34207         0.129333      0.282980      0.157104
     16.79705     20.70058     18.12968         0.011309     -0.146275     -0.071175
     17.85771     18.79721     16.90364         0.500562      0.150587      0.050914
     17.70357     16.75129     15.69419         0.137591      0.065375      0.116865
     11.07862     16.23823     15.01561        -0.529716     -0.249722     -0.208127
     19.18603     15.63439     14.32375        -0.379575      1.821213     -0.685618
 -----------------------------------------------------------------------------------
    total drift:                               -0.090980      0.037215     -0.015063


--------------------------------------------------------------------------------------------------------



  FREE ENERGIE OF THE ION-ELECTRON SYSTEM (eV)
  ---------------------------------------------------
  free  energy   TOTEN  =      -652.47308815 eV

  energy  without entropy=     -652.47308815  energy(sigma->0) =     -652.47308815
 


--------------------------------------------------------------------------------------------------------


    POTLOK:  cpu time    3.6565: real time    3.6685


--------------------------------------------------------------------------------------------------------


 stress matrix after NEB project (eV)
     -1.46471     -0.07132     -0.06829
     -0.07132     -1.08159     -0.58348
     -0.06829     -0.58348     -0.29159
  FORCES: max atom, RMS     5.700500    1.916577
  FORCE total and by dimension   17.773606    5.519593
  Stress total and by dimension    2.025005    1.464711
     LOOP+:  cpu time 7651.3306: real time 7676.2858
    4ORBIT:  cpu time    0.0000: real time    0.0000

 total amount of memory used by VASP on root node  2349045. kBytes
========================================================================

   base      :      30000. kBytes
   nonl-proj :     537328. kBytes
   fftplans  :     338850. kBytes
   grid      :     799755. kBytes
   one-center:        132. kBytes
   HF        :         13. kBytes
   nonlr-proj:        937. kBytes
   wavefun   :     642030. kBytes
 
  
  
 General timing and accounting informations for this job:
 ========================================================
  
                  Total CPU time used (sec):     7689.788
                            User time (sec):     7649.577
                          System time (sec):       40.211
                         Elapsed time (sec):     7718.984
  
                   Maximum memory used (kb):     3147444.
                   Average memory used (kb):           0.
  
                          Minor page faults:       760523
                          Major page faults:          197
                 Voluntary context switches:         2776
