 vasp.5.4.1 24Jun15 (build Feb 10 2025 21:25:14) gamma-only                     
  
 executed on           IFC91_ompi date 2026.02.18  15:55:32
 running on    4 total cores
 distrk:  each k-point on    4 cores,    1 groups
 distr:  one band on NCORES_PER_BAND=   1 cores,    4 groups


--------------------------------------------------------------------------------------------------------


 INCAR:
 POTCAR:    PAW_PBE C 08Apr2002                   
 POTCAR:    PAW_PBE H 15Jun2001                   
 POTCAR:    PAW_PBE O 08Apr2002                   
 POTCAR:    PAW_PBE C 08Apr2002                   
   VRHFIN =C: s2p2                                                              
   LEXCH  = PE                                                                  
   EATOM  =   147.1560 eV,   10.8157 Ry                                         
                                                                                
   TITEL  = PAW_PBE C 08Apr2002                                                 
   LULTRA =        F    use ultrasoft PP ?                                      
   IUNSCR =        1    unscreen: 0-lin 1-nonlin 2-no                           
   RPACOR =    1.200    partial core radius                                     
   POMASS =   12.011; ZVAL   =    4.000    mass and valenz                      
   RCORE  =    1.500    outmost cutoff radius                                   
   RWIGS  =    1.630; RWIGS  =    0.863    wigner-seitz radius (au A)           
   ENMAX  =  400.000; ENMIN  =  300.000 eV                                      
   ICORE  =        2    local potential                                         
   LCOR   =        T    correct aug charges                                     
   LPAW   =        T    paw PP                                                  
   EAUG   =  644.873                                                            
   DEXC   =    0.000                                                            
   RMAX   =    1.529    core radius for proj-oper                               
   RAUG   =    1.300    factor for augmentation sphere                          
   RDEP   =    1.501    radius for radial grids                                 
   RDEPT  =    1.300    core radius for aug-charge                              
                                                                                
   Atomic configuration                                                         
    4 entries                                                                   
     n  l   j            E        occ.                                          
     1  0  0.50      -273.3789   2.0000                                         
     2  0  0.50       -13.7508   2.0000                                         
     2  1  0.50        -5.2854   2.0000                                         
     3  2  1.50        -5.4423   0.0000                                         
   Description                                                                  
     l       E           TYP  RCUT    TYP  RCUT                                 
     0    -13.7508458     23  1.200                                             
     0     -8.2022199     23  1.200                                             
     1     -5.2854383     23  1.500                                             
     1     34.0145650     23  1.500                                             
     2     -5.4423304      7  1.500                                             
  local pseudopotential read in
  partial core-charges read in
  partial kinetic energy density read in
  atomic valenz-charges read in
  non local Contribution for L=           0  read in
    real space projection operators read in
  non local Contribution for L=           0  read in
    real space projection operators read in
  non local Contribution for L=           1  read in
    real space projection operators read in
  non local Contribution for L=           1  read in
    real space projection operators read in
    PAW grid and wavefunctions read in
 
   number of l-projection  operators is LMAX  =           4
   number of lm-projection operators is LMMAX =           8
 
 POTCAR:    PAW_PBE H 15Jun2001                   
   VRHFIN =H: ultrasoft test                                                    
   LEXCH  = PE                                                                  
   EATOM  =    12.4884 eV,    0.9179 Ry                                         
                                                                                
   TITEL  = PAW_PBE H 15Jun2001                                                 
   LULTRA =        F    use ultrasoft PP ?                                      
   IUNSCR =        0    unscreen: 0-lin 1-nonlin 2-no                           
   RPACOR =    0.000    partial core radius                                     
   POMASS =    1.000; ZVAL   =    1.000    mass and valenz                      
   RCORE  =    1.100    outmost cutoff radius                                   
   RWIGS  =    0.700; RWIGS  =    0.370    wigner-seitz radius (au A)           
   ENMAX  =  250.000; ENMIN  =  200.000 eV                                      
   RCLOC  =    0.701    cutoff for local pot                                    
   LCOR   =        T    correct aug charges                                     
   LPAW   =        T    paw PP                                                  
   EAUG   =  400.000                                                            
   RMAX   =    1.123    core radius for proj-oper                               
   RAUG   =    1.200    factor for augmentation sphere                          
   RDEP   =    1.112    radius for radial grids                                 
   RDEPT  =    0.926    core radius for aug-charge                              
                                                                                
   Atomic configuration                                                         
    2 entries                                                                   
     n  l   j            E        occ.                                          
     1  0  0.50        -6.4927   1.0000                                         
     2  1  0.50        -3.4015   0.0000                                         
   Description                                                                  
     l       E           TYP  RCUT    TYP  RCUT                                 
     0     -6.4927494     23  1.100                                             
     0      6.8029130     23  1.100                                             
     1     -4.0817478     23  1.100                                             
  local pseudopotential read in
  atomic valenz-charges read in
  non local Contribution for L=           0  read in
    real space projection operators read in
  non local Contribution for L=           0  read in
    real space projection operators read in
  non local Contribution for L=           1  read in
    real space projection operators read in
    PAW grid and wavefunctions read in
 
   number of l-projection  operators is LMAX  =           3
   number of lm-projection operators is LMMAX =           5
 
 POTCAR:    PAW_PBE O 08Apr2002                   
   VRHFIN =O: s2p4                                                              
   LEXCH  = PE                                                                  
   EATOM  =   432.3788 eV,   31.7789 Ry                                         
                                                                                
   TITEL  = PAW_PBE O 08Apr2002                                                 
   LULTRA =        F    use ultrasoft PP ?                                      
   IUNSCR =        1    unscreen: 0-lin 1-nonlin 2-no                           
   RPACOR =    1.200    partial core radius                                     
   POMASS =   16.000; ZVAL   =    6.000    mass and valenz                      
   RCORE  =    1.520    outmost cutoff radius                                   
   RWIGS  =    1.550; RWIGS  =    0.820    wigner-seitz radius (au A)           
   ENMAX  =  400.000; ENMIN  =  300.000 eV                                      
   ICORE  =        2    local potential                                         
   LCOR   =        T    correct aug charges                                     
   LPAW   =        T    paw PP                                                  
   EAUG   =  605.392                                                            
   DEXC   =    0.000                                                            
   RMAX   =    1.553    core radius for proj-oper                               
   RAUG   =    1.300    factor for augmentation sphere                          
   RDEP   =    1.550    radius for radial grids                                 
   RDEPT  =    1.329    core radius for aug-charge                              
                                                                                
   Atomic configuration                                                         
    4 entries                                                                   
     n  l   j            E        occ.                                          
     1  0  0.50      -514.6923   2.0000                                         
     2  0  0.50       -23.9615   2.0000                                         
     2  1  0.50        -9.0305   4.0000                                         
     3  2  1.50        -9.5241   0.0000                                         
   Description                                                                  
     l       E           TYP  RCUT    TYP  RCUT                                 
     0    -23.9615318     23  1.200                                             
     0     -9.5240782     23  1.200                                             
     1     -9.0304911     23  1.520                                             
     1      8.1634956     23  1.520                                             
     2     -9.5240782      7  1.500                                             
  local pseudopotential read in
  partial core-charges read in
  partial kinetic energy density read in
  kinetic energy density of atom read in
  atomic valenz-charges read in
  non local Contribution for L=           0  read in
    real space projection operators read in
  non local Contribution for L=           0  read in
    real space projection operators read in
  non local Contribution for L=           1  read in
    real space projection operators read in
  non local Contribution for L=           1  read in
    real space projection operators read in
    PAW grid and wavefunctions read in
 
   number of l-projection  operators is LMAX  =           4
   number of lm-projection operators is LMMAX =           8
 

 ----------------------------------------------------------------------------- 
|                                                                             |
|  ADVICE TO THIS USER RUNNING 'VASP/VAMP'   (HEAR YOUR MASTER'S VOICE ...):  |
|                                                                             |
|      You have a (more or less) 'large supercell' and for larger cells       |
|      it might be more efficient to use real space projection opertators     |
|      So try LREAL= Auto  in the INCAR   file.                               |
|      Mind: At the moment your POTCAR file does not contain real space       |
|       projectors, and has to be modified,  BUT if you                       |
|      want to do an extremely  accurate calculation you might also keep the  |
|      reciprocal projection scheme          (i.e. LREAL=.FALSE.)             |
|                                                                             |
 ----------------------------------------------------------------------------- 

  PAW_PBE C 08Apr2002                   :
 energy of atom  1       EATOM= -147.1560
 kinetic energy error for atom=    0.0076 (will be added to EATOM!!)
  PAW_PBE H 15Jun2001                   :
 energy of atom  2       EATOM=  -12.4884
 kinetic energy error for atom=    0.0020 (will be added to EATOM!!)
  PAW_PBE O 08Apr2002                   :
 energy of atom  3       EATOM= -432.3788
 kinetic energy error for atom=    0.0224 (will be added to EATOM!!)
 
 
 POSCAR: Molecule_POSCAR_07                      
  positions in cartesian coordinates
  No initial velocities read in
 exchange correlation table for  LEXCH =        8
   RHO(1)=    0.500       N(1)  =     2000
   RHO(2)=  100.500       N(2)  =     4000

 VTST: version 3.2, (02/03/18)

 CHAIN: initializing optimizer
 
 OPT: Using VASP Dynamics algorithm
 CHAIN: Read ICHAIN            0
 
 POSCAR: Molecule_POSCAR_07                      
  positions in cartesian coordinates
  No initial velocities read in
 


--------------------------------------------------------------------------------------------------------


 ion  position               nearest neighbor table
   1  0.640  0.512  0.377-  45 1.11   2 1.51   6 1.51
   2  0.591  0.508  0.386-  46 1.07   3 1.36   1 1.51
   3  0.576  0.511  0.428-  47 1.07   2 1.36   4 1.45
   4  0.609  0.519  0.463-  13 1.44   3 1.45   5 1.47
   5  0.647  0.488  0.454-   6 1.32   7 1.45   4 1.47
   6  0.662  0.485  0.413-  48 1.06   5 1.32   1 1.51
   7  0.657  0.468  0.497-   8 1.33   5 1.45  12 1.46
   8  0.688  0.438  0.510-  49 1.06   7 1.33   9 1.46
   9  0.692  0.423  0.556-  50 1.09  10 1.46   8 1.46
  10  0.660  0.441  0.588-  51 1.09  11 1.32   9 1.46
  11  0.630  0.470  0.575-  52 1.07  10 1.32  12 1.45
  12  0.626  0.486  0.529-  13 1.37  11 1.45   7 1.46
  13  0.598  0.515  0.509-  12 1.37   4 1.44  14 1.48
  14  0.563  0.538  0.536-  71 1.42  44 1.47  13 1.48
  15  0.507  0.487  0.549-  22 1.32  71 1.39  16 1.45
  16  0.487  0.447  0.567-  17 1.37  21 1.40  15 1.45
  17  0.444  0.442  0.578-  53 1.08  16 1.37  18 1.38
  18  0.427  0.402  0.595-  54 1.10  17 1.38  19 1.39
  19  0.455  0.366  0.602-  55 1.08  20 1.38  18 1.39
  20  0.499  0.372  0.592-  56 1.08  21 1.38  19 1.38
  21  0.516  0.411  0.575-  57 1.08  20 1.38  16 1.40
  22  0.494  0.511  0.514-  15 1.32  23 1.46  44 1.50
  23  0.461  0.517  0.478-  72 1.39  24 1.43  22 1.46
  24  0.418  0.497  0.483-  25 1.35  23 1.43  36 1.48
  25  0.406  0.455  0.475-  24 1.35  30 1.45  26 1.47
  26  0.430  0.416  0.458-  58 1.08  27 1.31  25 1.47
  27  0.408  0.378  0.453-  59 1.10  26 1.31  28 1.47
  28  0.360  0.374  0.463-  60 1.07  29 1.34  27 1.47
  29  0.337  0.410  0.478-  61 1.09  28 1.34  30 1.38
  30  0.359  0.450  0.484-  29 1.38  31 1.42  25 1.45
  31  0.341  0.491  0.499-  32 1.39  36 1.41  30 1.42
  32  0.300  0.506  0.512-  62 1.09  33 1.38  31 1.39
  33  0.292  0.549  0.526-  63 1.09  32 1.38  34 1.38
  34  0.327  0.579  0.526-  64 1.08  33 1.38  35 1.38
  35  0.369  0.564  0.512-  65 1.10  36 1.37  34 1.38
  36  0.377  0.521  0.499-  35 1.37  31 1.41  24 1.48
  37  0.504  0.580  0.483-  44 1.33  72 1.40  38 1.46
  38  0.519  0.625  0.471-  39 1.37  43 1.41  37 1.46
  39  0.562  0.636  0.464-  66 1.09  38 1.37  40 1.40
  40  0.575  0.680  0.453-  67 1.07  41 1.37  39 1.40
  41  0.544  0.713  0.449-  68 1.09  40 1.37  42 1.39
  42  0.500  0.702  0.456-  69 1.10  43 1.37  41 1.39
  43  0.488  0.660  0.467-  70 1.10  42 1.37  38 1.41
  44  0.524  0.550  0.508-  37 1.33  14 1.47  22 1.50
  45  0.649  0.494  0.345-   1 1.11
  46  0.569  0.502  0.358-   2 1.07
  47  0.541  0.508  0.431-   3 1.07
  48  0.689  0.463  0.407-   6 1.06
  49  0.710  0.426  0.485-   8 1.06
  50  0.701  0.388  0.560-   9 1.09
  51  0.661  0.430  0.622-  10 1.09
  52  0.608  0.482  0.600-  11 1.07
  53  0.421  0.469  0.574-  17 1.08
  54  0.391  0.399  0.603-  18 1.10
  55  0.441  0.335  0.616-  19 1.08
  56  0.521  0.344  0.597-  20 1.08
  57  0.550  0.415  0.566-  21 1.08
  58  0.465  0.419  0.451-  26 1.08
  59  0.427  0.350  0.441-  27 1.10
  60  0.344  0.343  0.457-  28 1.07
  61  0.302  0.404  0.484-  29 1.09
  62  0.272  0.482  0.512-  32 1.09
  63  0.259  0.561  0.536-  33 1.09
  64  0.323  0.613  0.536-  34 1.08
  65  0.397  0.587  0.512-  35 1.10
  66  0.587  0.610  0.468-  39 1.09
  67  0.610  0.687  0.448-  40 1.07
  68  0.553  0.747  0.440-  41 1.09
  69  0.475  0.729  0.452-  42 1.10
  70  0.453  0.650  0.472-  43 1.10
  71  0.545  0.507  0.566-  15 1.39  14 1.42
  72  0.464  0.562  0.468-  23 1.39  37 1.40
 
  LATTYP: Found a simple cubic cell.
 ALAT       =    30.0000000000
  
  Lattice vectors:
  
 A1 = (  30.0000000000,   0.0000000000,   0.0000000000)
 A2 = (   0.0000000000,  30.0000000000,   0.0000000000)
 A3 = (   0.0000000000,   0.0000000000,  30.0000000000)


Analysis of symmetry for initial positions (statically):
=====================================================================
 Subroutine PRICEL returns:
 Original cell was already a primitive cell.
 

 Routine SETGRP: Setting up the symmetry group for a 
 simple cubic supercell.


 Subroutine GETGRP returns: Found  1 space group operations
 (whereof  1 operations were pure point group operations)
 out of a pool of 48 trial point group operations.


The static configuration has the point symmetry C_1 .


Analysis of symmetry for dynamics (positions and initial velocities):
=====================================================================
 Subroutine PRICEL returns:
 Original cell was already a primitive cell.
 

 Routine SETGRP: Setting up the symmetry group for a 
 simple cubic supercell.


 Subroutine GETGRP returns: Found  1 space group operations
 (whereof  1 operations were pure point group operations)
 out of a pool of 48 trial point group operations.


The dynamic configuration has the point symmetry C_1 .
 
 
 KPOINTS: Gamma-point only                        

Automatic generation of k-mesh.
Space group operators:
 irot       det(A)        alpha          n_x          n_y          n_z        tau_x        tau_y        tau_z
    1     1.000000     0.000000     1.000000     0.000000     0.000000     0.000000     0.000000     0.000000
 
 Subroutine IBZKPT returns following result:
 ===========================================
 
 Found      1 irreducible k-points:
 
 Following reciprocal coordinates:
            Coordinates               Weight
  0.000000  0.000000  0.000000      1.000000
 
 Following cartesian coordinates:
            Coordinates               Weight
  0.000000  0.000000  0.000000      1.000000
 
 
 Subroutine IBZKPT_HF returns following result:
 ==============================================
 
 Found      1 k-points in 1st BZ
 the following      1 k-points will be used (e.g. in the exchange kernel)
 Following reciprocal coordinates:   # in IRBZ
  0.000000  0.000000  0.000000    1.00000000   1 t-inv F


--------------------------------------------------------------------------------------------------------




 Dimension of arrays:
   k-points           NKPTS =      1   k-points in BZ     NKDIM =      1   number of bands    NBANDS=    144
   number of dos      NEDOS =    301   number of ions     NIONS =     72
   non local maximal  LDIM  =      4   non local SUM 2l+1 LMDIM =      8
   total plane-waves  NPLWV = ******
   max r-space proj   IRMAX =      1   max aug-charges    IRDMAX=   2478
   dimension x,y,z NGX =   168 NGY =  168 NGZ =  168
   dimension x,y,z NGXF=   336 NGYF=  336 NGZF=  336
   support grid    NGXF=   336 NGYF=  336 NGZF=  336
   ions per type =              44  26   2
 NGX,Y,Z   is equivalent  to a cutoff of   9.31,  9.31,  9.31 a.u.
 NGXF,Y,Z  is equivalent  to a cutoff of  18.62, 18.62, 18.62 a.u.


 I would recommend the setting:
   dimension x,y,z NGX =   164 NGY =  164 NGZ =  164
 SYSTEM =  Step2_PBE0_Final_Calc                   
 POSCAR =  Molecule_POSCAR_07                      

 Startparameter for this run:
   NWRITE =      2    write-flag & timer
   PREC   = normal    normal or accurate (medium, high low for compatibility)
   ISTART =      1    job   : 0-new  1-cont  2-samecut
   ICHARG =      0    charge: 1-file 2-atom 10-const
   ISPIN  =      1    spin polarized calculation?
   LNONCOLLINEAR =      F non collinear calculations
   LSORBIT =      F    spin-orbit coupling
   INIWAV =      1    electr: 0-lowe 1-rand  2-diag
   LASPH  =      T    aspherical Exc in radial PAW
   METAGGA=      F    non-selfconsistent MetaGGA calc.

 Electronic Relaxation 1
   ENCUT  =  500.0 eV  36.75 Ry    6.06 a.u.  54.70 54.70 54.70*2*pi/ulx,y,z
   ENINI  =  500.0     initial cutoff
   ENAUG  =  644.9 eV  augmentation charge cutoff
   NELM   =    100;   NELMIN=  2; NELMDL=  0     # of ELM steps 
   EDIFF  = 0.1E-05   stopping-criterion for ELM
   LREAL  =      F    real-space projection
   NLSPLINE    = F    spline interpolate recip. space projectors
   LCOMPAT=      F    compatible to vasp.4.4
   GGA_COMPAT  = T    GGA compatible to vasp.4.4-vasp.4.6
   LMAXPAW     = -100 max onsite density
   LMAXMIX     =    2 max onsite mixed and CHGCAR
   VOSKOWN=      0    Vosko Wilk Nusair interpolation
   ROPT   =    0.00000   0.00000   0.00000
 Ionic relaxation
   EDIFFG = 0.1E-04   stopping-criterion for IOM
   NSW    =      0    number of steps for IOM
   NBLOCK =      1;   KBLOCK =      1    inner block; outer block 
   IBRION =     -1    ionic relax: 0-MD 1-quasi-New 2-CG
   NFREE  =      0    steps in history (QN), initial steepest desc. (CG)
   ISIF   =      0    stress and relaxation
   IWAVPR =     10    prediction:  0-non 1-charg 2-wave 3-comb
   ISYM   =      3    0-nonsym 1-usesym 2-fastsym
   LCORR  =      T    Harris-Foulkes like correction to forces

   POTIM  = 0.5000    time-step for ionic-motion
   TEIN   =    0.0    initial temperature
   TEBEG  =    0.0;   TEEND  =   0.0 temperature during run
   SMASS  =  -3.00    Nose mass-parameter (am)
   estimated Nose-frequenzy (Omega)   =  0.10E-29 period in steps =****** mass=  -0.206E-25a.u.
   SCALEE = 1.0000    scale energy and forces
   NPACO  =    256;   APACO  = 16.0  distance and # of slots for P.C.
   PSTRESS=    0.0 pullay stress

  Mass of Ions in am
   POMASS =  12.01  1.00 16.00
  Ionic Valenz
   ZVAL   =   4.00  1.00  6.00
  Atomic Wigner-Seitz radii
   RWIGS  =  -1.00 -1.00 -1.00
  virtual crystal weights 
   VCA    =   1.00  1.00  1.00
   NELECT =     214.0000    total number of electrons
   NUPDOWN=      -1.0000    fix difference up-down

 DOS related values:
   EMIN   =  10.00;   EMAX   =-10.00  energy-range for DOS
   EFERMI =   0.00
   ISMEAR =     0;   SIGMA  =   0.05  broadening in eV -4-tet -1-fermi 0-gaus

 Electronic relaxation 2 (details)
   IALGO  =     58    algorithm
   LDIAG  =      T    sub-space diagonalisation (order eigenvalues)
   LSUBROT=      F    optimize rotation matrix (better conditioning)
   TURBO    =      0    0=normal 1=particle mesh
   IRESTART =      0    0=no restart 2=restart with 2 vectors
   NREBOOT  =      0    no. of reboots
   NMIN     =      0    reboot dimension
   EREF     =   0.00    reference energy to select bands
   IMIX   =      4    mixing-type and parameters
     AMIX     =   0.40;   BMIX     =  1.00
     AMIX_MAG =   1.60;   BMIX_MAG =  1.00
     AMIN     =   0.10
     WC   =   100.;   INIMIX=   1;  MIXPRE=   1;  MAXMIX= -45

 Intra band minimization:
   WEIMIN = 0.0000     energy-eigenvalue tresh-hold
   EBREAK =  0.17E-08  absolut break condition
   DEPER  =   0.30     relativ break condition  

   TIME   =   0.40     timestep for ELM

  volume/ion in A,a.u.               =     375.00      2530.62
  Fermi-wavevector in a.u.,A,eV,Ry     =   0.326406  0.616818  1.449577  0.106541
  Thomas-Fermi vector in A             =   1.218240
 
 Write flags
   LWAVE  =      F    write WAVECAR
   LCHARG =      F    write CHGCAR
   LVTOT  =      F    write LOCPOT, total local potential
   LVHAR  =      F    write LOCPOT, Hartree potential only
   LELF   =      F    write electronic localiz. function (ELF)
   LORBIT =      0    0 simple, 1 ext, 2 COOP (PROOUT)


 Dipole corrections
   LMONO  =      F    monopole corrections only (constant potential shift)
   LDIPOL =      F    correct potential (dipole corrections)
   IDIPOL =      0    1-x, 2-y, 3-z, 4-all directions 
   EPSILON=  1.0000000 bulk dielectric constant

 Exchange correlation treatment:
   GGA     =    PE    GGA type
   LEXCH   =     8    internal setting for exchange type
   VOSKOWN=      0    Vosko Wilk Nusair interpolation
   EXXOEP  =     0    0=HF, 1=EXX-LHF (local Hartree Fock) 2=EXX OEP
   LHFCALC =     T    Hartree Fock is set to
   LSYMGRAD=     F    symmetrize gradient (conserves proper symmetry)
   PRECFOCK=fast      Normal, Fast or Accurate (Low or Medium for compatibility)
   LRHFCALC=     F    long range Hartree Fock
   LRSCOR  =     F    long range correlation only (use DFT for short range part)
   LTHOMAS =     F    Thomas Fermi screening in HF
   LMODELHF=     F    short range full HF, long range fraction AEXX
   ENCUT4O =  -1.0   cutoff for four orbital integrals eV
   LMAXFOCK=     4    L truncation for augmentation on plane wave grid
   LMAXFOCKAE=  -1    L truncation for all-electron charge restoration on plane wave grid
   NMAXFOCKAE=   1    number of basis functions for all-electron charge restoration
   LFOCKAEDFT=     F  apply the AE augmentation even for DFT
   NKREDX  =     1    reduce k-point grid by
   NKREDY  =     1    reduce k-point grid by
   NKREDZ  =     1    reduce k-point grid by
   SHIFTRED=     F    shift reduced grid of Gamma
   HFKIDENT=     F    idential grid for each k-point
   ODDONLY =     F    use only odd q-grid points
   EVENONLY=     F    use only even q-grid points
   HFALPHA =   -1.0000 decay constant for conv. correction
   MCALPHA =    0.0000 extent of test-charge in conv. correction in multipole expansion
   AEXX    =    0.2500 exact exchange contribution
   HFSCREEN=    0.0000 screening length (either q_TF or 0.3 A-1)
   HFSCREENC=   0.0000 screening length for correlation (either q_TF or 0.3 A-1)
   HFRCUT  =    0.0000 spherical cutoff for potential kernel
   ALDAX   =    0.7500 LDA exchange part
   AGGAX   =    0.7500 GGA exchange part
   ALDAC   =    1.0000 LDA correlation
   AGGAC   =    1.0000 GGA correlation
   NBANDSGWLOW=     1    first orbital included in HF term
   ENCUTFOCK=  -1.0 apply spherical cutoff to Coloumb kernel
 Linear response parameters
   LEPSILON=     F    determine dielectric tensor
   LRPA    =     F    only Hartree local field effects (RPA)
   LNABLA  =     F    use nabla operator in PAW spheres
   LVEL    =     F    velocity operator in full k-point grid
   LINTERFAST=   F  fast interpolation
   KINTER  =     0    interpolate to denser k-point grid
   CSHIFT  =0.1000    complex shift for real part using Kramers Kronig
   OMEGAMAX=  -1.0    maximum frequency
   DEG_THRESHOLD= 0.2000000E-02 threshold for treating states as degnerate
   RTIME   =    0.100 relaxation time in fs

 Orbital magnetization related:
   ORBITALMAG=     F  switch on orbital magnetization
   LCHIMAG   =     F  perturbation theory with respect to B field
   DQ        =  0.001000  dq finite difference perturbation B field



--------------------------------------------------------------------------------------------------------


 Static calculation
 charge density and potential will be updated during run
 non-spin polarized calculation
 Conjugate gradient for all bands (Freysoldt, et al. PRB 79, 241103 (2009))
 preconditioned conjugated gradient                                        
 perform sub-space diagonalisation
    before iterative eigenvector-optimisation
 modified Broyden-mixing scheme, WC =      100.0
 initial mixing is a Kerker type mixing with AMIX =  0.4000 and BMIX =      1.0000
 Hartree-type preconditioning will be used
 using additional bands           37
 reciprocal scheme for non local part
 use partial core corrections
 no Harris-corrections to forces 
 use gradient corrections 
 use of overlap-Matrix (Vanderbilt PP)
 Gauss-broadening in eV      SIGMA  =   0.05


--------------------------------------------------------------------------------------------------------


  energy-cutoff  :      500.00
  volume of cell :    27000.00
      direct lattice vectors                 reciprocal lattice vectors
    30.000000000  0.000000000  0.000000000     0.033333333  0.000000000  0.000000000
     0.000000000 30.000000000  0.000000000     0.000000000  0.033333333  0.000000000
     0.000000000  0.000000000 30.000000000     0.000000000  0.000000000  0.033333333

  length of vectors
    30.000000000 30.000000000 30.000000000     0.033333333  0.033333333  0.033333333


 
 old parameters found on file WAVECAR:
  energy-cutoff  :      500.00
  volume of cell :    27000.00
      direct lattice vectors                 reciprocal lattice vectors
    30.000000000  0.000000000  0.000000000     0.033333333  0.000000000  0.000000000
     0.000000000 30.000000000  0.000000000     0.000000000  0.033333333  0.000000000
     0.000000000  0.000000000 30.000000000     0.000000000  0.000000000  0.033333333

  length of vectors

 
 k-points in units of 2pi/SCALE and weight: Gamma-point only                        
   0.00000000  0.00000000  0.00000000       1.000
 
 k-points in reciprocal lattice and weights: Gamma-point only                        
   0.00000000  0.00000000  0.00000000       1.000
 
 position of ions in fractional coordinates (direct lattice) 
   0.64048820  0.51202073  0.37659223
   0.59119427  0.50781297  0.38584127
   0.57592600  0.51107550  0.42828847
   0.60920830  0.51860713  0.46254513
   0.64694507  0.48818437  0.45433287
   0.66217767  0.48486090  0.41318713
   0.65749350  0.46793830  0.49680673
   0.68788900  0.43835117  0.51006517
   0.69217673  0.42255740  0.55585823
   0.66036977  0.44086733  0.58769527
   0.62995910  0.47016510  0.57510847
   0.62628463  0.48571137  0.52946253
   0.59798177  0.51524280  0.50918333
   0.56341123  0.53849193  0.53551253
   0.50721073  0.48742203  0.54857390
   0.48749267  0.44735780  0.56737957
   0.44350980  0.44166043  0.57814097
   0.42673990  0.40228880  0.59525083
   0.45471417  0.36603883  0.60236723
   0.49903720  0.37164057  0.59159337
   0.51557543  0.41097643  0.57453540
   0.49380120  0.51104213  0.51401127
   0.46137837  0.51650947  0.47827973
   0.41792817  0.49749620  0.48345360
   0.40599143  0.45485343  0.47468940
   0.43034910  0.41563000  0.45824507
   0.40776317  0.37844097  0.45295760
   0.35998370  0.37394093  0.46253167
   0.33737830  0.40952633  0.47769240
   0.35885283  0.44976180  0.48425023
   0.34138190  0.49102833  0.49914057
   0.29962507  0.50598820  0.51244693
   0.29167223  0.54919137  0.52564620
   0.32696497  0.57864720  0.52553387
   0.36869257  0.56399680  0.51232187
   0.37746140  0.52106943  0.49900833
   0.50384363  0.58020220  0.48296910
   0.51881387  0.62492187  0.47142923
   0.56239850  0.63620223  0.46443960
   0.57511553  0.67961947  0.45323367
   0.54414293  0.71268807  0.44882183
   0.49956117  0.70226333  0.45572097
   0.48759597  0.65953600  0.46668357
   0.52432243  0.55021093  0.50816290
   0.64917080  0.49400237  0.34539277
   0.56924563  0.50227610  0.35836853
   0.54057020  0.50751593  0.43114437
   0.68927870  0.46308177  0.40709083
   0.70981763  0.42612897  0.48498787
   0.70122093  0.38768173  0.56014857
   0.66148640  0.43044670  0.62235923
   0.60785277  0.48240233  0.60011133
   0.42054577  0.46890950  0.57358713
   0.39105177  0.39931180  0.60335503
   0.44104680  0.33541667  0.61579460
   0.52104663  0.34364183  0.59695513
   0.55040820  0.41513960  0.56616340
   0.46535937  0.41928203  0.45145730
   0.42730937  0.34985240  0.44057393
   0.34407260  0.34259027  0.45724187
   0.30202870  0.40413717  0.48411410
   0.27224493  0.48210820  0.51227493
   0.25916363  0.56136060  0.53615130
   0.32283070  0.61303243  0.53554763
   0.39693820  0.58743023  0.51221877
   0.58741457  0.61017867  0.46795037
   0.60966907  0.68689873  0.44808083
   0.55345353  0.74680547  0.44005610
   0.47466943  0.72886463  0.45215590
   0.45254403  0.65046530  0.47230450
   0.54524073  0.50736107  0.56593640
   0.46351537  0.56163887  0.46848710
 
 position of ions in cartesian coordinates  (Angst):
  19.21464600 15.36062200 11.29776700
  17.73582800 15.23438900 11.57523800
  17.27778000 15.33226500 12.84865400
  18.27624900 15.55821400 13.87635400
  19.40835200 14.64553100 13.62998600
  19.86533000 14.54582700 12.39561400
  19.72480500 14.03814900 14.90420200
  20.63667000 13.15053500 15.30195500
  20.76530200 12.67672200 16.67574700
  19.81109300 13.22602000 17.63085800
  18.89877300 14.10495300 17.25325400
  18.78853900 14.57134100 15.88387600
  17.93945300 15.45728400 15.27550000
  16.90233700 16.15475800 16.06537600
  15.21632200 14.62266100 16.45721700
  14.62478000 13.42073400 17.02138700
  13.30529400 13.24981300 17.34422900
  12.80219700 12.06866400 17.85752500
  13.64142500 10.98116500 18.07101700
  14.97111600 11.14921700 17.74780100
  15.46726300 12.32929300 17.23606200
  14.81403600 15.33126400 15.42033800
  13.84135100 15.49528400 14.34839200
  12.53784500 14.92488600 14.50360800
  12.17974300 13.64560300 14.24068200
  12.91047300 12.46890000 13.74735200
  12.23289500 11.35322900 13.58872800
  10.79951100 11.21822800 13.87595000
  10.12134900 12.28579000 14.33077200
  10.76558500 13.49285400 14.52750700
  10.24145700 14.73085000 14.97421700
   8.98875200 15.17964600 15.37340800
   8.75016700 16.47574100 15.76938600
   9.80894900 17.35941600 15.76601600
  11.06077700 16.91990400 15.36965600
  11.32384200 15.63208300 14.97025000
  15.11530900 17.40606600 14.48907300
  15.56441600 18.74765600 14.14287700
  16.87195500 19.08606700 13.93318800
  17.25346600 20.38858400 13.59701000
  16.32428800 21.38064200 13.46465500
  14.98683500 21.06790000 13.67162900
  14.62787900 19.78608000 14.00050700
  15.72967300 16.50632800 15.24488700
  19.47512400 14.82007100 10.36178300
  17.07736900 15.06828300 10.75105600
  16.21710600 15.22547800 12.93433100
  20.67836100 13.89245300 12.21272500
  21.29452900 12.78386900 14.54963600
  21.03662800 11.63045200 16.80445700
  19.84459200 12.91340100 18.67077700
  18.23558300 14.47207000 18.00334000
  12.61637300 14.06728500 17.20761400
  11.73155300 11.97935400 18.10065100
  13.23140400 10.06250000 18.47383800
  15.63139900 10.30925500 17.90865400
  16.51224600 12.45418800 16.98490200
  13.96078100 12.57846100 13.54371900
  12.81928100 10.49557200 13.21721800
  10.32217800 10.27770800 13.71725600
   9.06086100 12.12411500 14.52342300
   8.16734800 14.46324600 15.36824800
   7.77490900 16.84081800 16.08453900
   9.68492100 18.39097300 16.06642900
  11.90814600 17.62290700 15.36656300
  17.62243700 18.30536000 14.03851100
  18.29007200 20.60696200 13.44242500
  16.60360600 22.40416400 13.20168300
  14.24008300 21.86593900 13.56467700
  13.57632100 19.51395900 14.16913500
  16.35722200 15.22083200 16.97809200
  13.90546100 16.84916600 14.05461300
 


--------------------------------------------------------------------------------------------------------


 use seriel FFT for wavefunctions x direction half grid
 k-point  1 :   0.0000 0.0000 0.0000  plane waves:  342683

 maximum and minimum number of plane-waves per node :    342683   342683

 maximum number of plane-waves:    342683
 maximum index in each direction: 
   IXMAX=   54   IYMAX=   54   IZMAX=   54
   IXMIN=    0   IYMIN=  -54   IZMIN=  -54

 WARNING: aliasing errors must be expected set NGX to 218 to avoid them
 WARNING: aliasing errors must be expected set NGY to 218 to avoid them
 WARNING: aliasing errors must be expected set NGZ to 218 to avoid them
 aliasing errors are usually negligible using standard VASP settings
 and one can safely disregard these warnings

 serial   3D FFT for wavefunctions
 parallel 3D FFT for charge:
    minimum data exchange during FFTs selected (reduces bandwidth)


 FFT grid for exact exchange (Hartree Fock) 
  NGX =112; NGY =112; NGZ =112

 use seriel FFT for wavefunctions x direction half grid
 
 Radii for the augmentation spheres in the non-local exchange
 for species   1 augmentation radius   0.944 (default was   0.699)
       energy cutoff for augmentation   2000.0
 for species   2 augmentation radius   0.702 (default was   0.520)
       energy cutoff for augmentation   2000.0
 for species   3 augmentation radius   0.974 (default was   0.722)
       energy cutoff for augmentation   2000.0
 Maximum index for augmentation-charges in exchange          203
  SETUP_FOCK is finished

 total amount of memory used by VASP on root node  2222707. kBytes
========================================================================

   base      :      30000. kBytes
   nonl-proj :     460567. kBytes
   fftplans  :     338850. kBytes
   grid      :     799755. kBytes
   one-center:        110. kBytes
   HF        :         13. kBytes
   nonlr-proj:        825. kBytes
   wavefun   :     592587. kBytes
 
     INWAV:  cpu time    1.2919: real time    4.4780
 Broyden mixing: mesh for mixing (old mesh)
   NGX =109   NGY =109   NGZ =109
  (NGX  =336   NGY  =336   NGZ  =336)
  gives a total of ****** points

 charge density for first step will be calculated from the start-wavefunctions


--------------------------------------------------------------------------------------------------------


 Maximum index for augmentation-charges          548 (set IRDMAX)


--------------------------------------------------------------------------------------------------------


 initial charge from wavefunction
 FEWALD executed in parallel
    FEWALD:  cpu time    0.0050: real time    0.0051


----------------------------------------- Iteration    1(   1)  ---------------------------------------


    POTLOK:  cpu time    3.4855: real time    3.4976
    SETDIJ:  cpu time    0.4816: real time    0.4830
    TRIAL :  cpu time  254.3143: real time  256.0796
    CORREC:  cpu time  208.2120: real time  209.1741
    CHARGE:  cpu time    2.8951: real time    2.9031
    --------------------------------------------
      LOOP:  cpu time  469.4704: real time  472.2209

 eigenvalue-minimisations  :     0
 total energy-change (2. order) :-0.6001695E+03  (-0.5308690E+00)
 number of electron     213.9999963 magnetization 
 augmentation part        5.9301005 magnetization 

 Free energy of the ion-electron system (eV)
  ---------------------------------------------------
  alpha Z        PSCENC =         8.03112185
  Ewald energy   TEWEN  =     39385.52504148
  -Hartree energ DENC   =    -45568.53346060
  -exchange      EXHF   =       566.53116633
  -V(xc)+E(xc)   XCENC  =       562.45837784
  PAW double counting   =     19951.07147505   -19974.06132813
  entropy T*S    EENTRO =        -0.00000000
  eigenvalues    EBANDS =     -3072.27120408
  atomic energy  EATOM  =      7541.07930648
  ---------------------------------------------------
  free energy    TOTEN  =      -600.16951562 eV

  energy without entropy =     -600.16951562  energy(sigma->0) =     -600.16951562
  exchange ACFDT corr.  =        -0.00003404  see jH, gK, PRB 81, 115126


--------------------------------------------------------------------------------------------------------




----------------------------------------- Iteration    1(   2)  ---------------------------------------


    POTLOK:  cpu time    3.5468: real time    3.5568
    SETDIJ:  cpu time    0.4806: real time    0.4818
    TRIAL :  cpu time  235.0418: real time  235.8751
    CORREC:  cpu time  208.6978: real time  209.4385
    CHARGE:  cpu time    2.9221: real time    2.9323
    --------------------------------------------
      LOOP:  cpu time  450.6914: real time  452.2879

 eigenvalue-minimisations  :     0
 total energy-change (2. order) :-0.5488039E+00  (-0.9498142E-01)
 number of electron     213.9999963 magnetization 
 augmentation part        5.9188697 magnetization 

 Free energy of the ion-electron system (eV)
  ---------------------------------------------------
  alpha Z        PSCENC =         8.03112185
  Ewald energy   TEWEN  =     39385.52504148
  -Hartree energ DENC   =    -45558.62291029
  -exchange      EXHF   =       566.66038031
  -V(xc)+E(xc)   XCENC  =       561.90337950
  PAW double counting   =     20879.56244408   -20902.03728741
  entropy T*S    EENTRO =        -0.00000000
  eigenvalues    EBANDS =     -3082.81979555
  atomic energy  EATOM  =      7541.07930648
  ---------------------------------------------------
  free energy    TOTEN  =      -600.71831954 eV

  energy without entropy =     -600.71831954  energy(sigma->0) =     -600.71831954
  exchange ACFDT corr.  =         0.00000000  see jH, gK, PRB 81, 115126


--------------------------------------------------------------------------------------------------------




----------------------------------------- Iteration    1(   3)  ---------------------------------------


    POTLOK:  cpu time    3.5528: real time    3.5629
    SETDIJ:  cpu time    0.4806: real time    0.4818
    TRIAL :  cpu time  234.5032: real time  235.2010
    CORREC:  cpu time  209.7154: real time  210.3341
    CHARGE:  cpu time    2.8947: real time    2.9028
    --------------------------------------------
      LOOP:  cpu time  451.1486: real time  452.4857

 eigenvalue-minimisations  :     0
 total energy-change (2. order) :-0.9521373E-01  (-0.3169263E-01)
 number of electron     213.9999963 magnetization 
 augmentation part        5.9171448 magnetization 

 Free energy of the ion-electron system (eV)
  ---------------------------------------------------
  alpha Z        PSCENC =         8.03112185
  Ewald energy   TEWEN  =     39385.52504148
  -Hartree energ DENC   =    -45561.82294175
  -exchange      EXHF   =       566.89455829
  -V(xc)+E(xc)   XCENC  =       561.93661577
  PAW double counting   =     21273.34976607   -21295.71144171
  entropy T*S    EENTRO =        -0.00000000
  eigenvalues    EBANDS =     -3080.09555975
  atomic energy  EATOM  =      7541.07930648
  ---------------------------------------------------
  free energy    TOTEN  =      -600.81353327 eV

  energy without entropy =     -600.81353327  energy(sigma->0) =     -600.81353327
  exchange ACFDT corr.  =         0.00000000  see jH, gK, PRB 81, 115126


--------------------------------------------------------------------------------------------------------




----------------------------------------- Iteration    1(   4)  ---------------------------------------


    POTLOK:  cpu time    3.5278: real time    3.5377
    SETDIJ:  cpu time    0.4802: real time    0.4814
    TRIAL :  cpu time  234.2965: real time  234.9914
    CORREC:  cpu time  209.3770: real time  209.9954
    CHARGE:  cpu time    2.9866: real time    2.9954
    --------------------------------------------
      LOOP:  cpu time  450.6703: real time  452.0045

 eigenvalue-minimisations  :     0
 total energy-change (2. order) :-0.3172795E-01  (-0.1289769E-01)
 number of electron     213.9999963 magnetization 
 augmentation part        5.9195031 magnetization 

 Free energy of the ion-electron system (eV)
  ---------------------------------------------------
  alpha Z        PSCENC =         8.03112185
  Ewald energy   TEWEN  =     39385.52504148
  -Hartree energ DENC   =    -45567.26157282
  -exchange      EXHF   =       567.19770190
  -V(xc)+E(xc)   XCENC  =       562.12326722
  PAW double counting   =     21470.16669273   -21492.47661213
  entropy T*S    EENTRO =        -0.00000000
  eigenvalues    EBANDS =     -3075.23020793
  atomic energy  EATOM  =      7541.07930648
  ---------------------------------------------------
  free energy    TOTEN  =      -600.84526121 eV

  energy without entropy =     -600.84526121  energy(sigma->0) =     -600.84526121
  exchange ACFDT corr.  =         0.00000000  see jH, gK, PRB 81, 115126


--------------------------------------------------------------------------------------------------------




----------------------------------------- Iteration    1(   5)  ---------------------------------------


    POTLOK:  cpu time    3.5768: real time    3.5901
    SETDIJ:  cpu time    0.4793: real time    0.4806
    TRIAL :  cpu time  233.4225: real time  234.2822
    CORREC:  cpu time  207.8697: real time  208.6095
    CHARGE:  cpu time    2.9280: real time    2.9382
    --------------------------------------------
      LOOP:  cpu time  448.2782: real time  449.9038

 eigenvalue-minimisations  :     0
 total energy-change (2. order) :-0.1293521E-01  (-0.6717086E-02)
 number of electron     213.9999963 magnetization 
 augmentation part        5.9216765 magnetization 

 Free energy of the ion-electron system (eV)
  ---------------------------------------------------
  alpha Z        PSCENC =         8.03112185
  Ewald energy   TEWEN  =     39385.52504148
  -Hartree energ DENC   =    -45567.75767702
  -exchange      EXHF   =       567.31193161
  -V(xc)+E(xc)   XCENC  =       562.18499758
  PAW double counting   =     21540.14553094   -21562.44850090
  entropy T*S    EENTRO =        -0.00000000
  eigenvalues    EBANDS =     -3074.92994845
  atomic energy  EATOM  =      7541.07930648
  ---------------------------------------------------
  free energy    TOTEN  =      -600.85819643 eV

  energy without entropy =     -600.85819643  energy(sigma->0) =     -600.85819643
  exchange ACFDT corr.  =         0.00000000  see jH, gK, PRB 81, 115126


--------------------------------------------------------------------------------------------------------




----------------------------------------- Iteration    1(   6)  ---------------------------------------


    POTLOK:  cpu time    3.5414: real time    3.5539
    SETDIJ:  cpu time    0.4839: real time    0.4854
    TRIAL :  cpu time  235.9339: real time  236.7888
    CORREC:  cpu time  207.5852: real time  208.3268
    CHARGE:  cpu time    2.9073: real time    2.9171
    --------------------------------------------
      LOOP:  cpu time  450.4534: real time  452.0743

 eigenvalue-minimisations  :     0
 total energy-change (2. order) :-0.6731027E-02  (-0.3460592E-02)
 number of electron     213.9999963 magnetization 
 augmentation part        5.9236789 magnetization 

 Free energy of the ion-electron system (eV)
  ---------------------------------------------------
  alpha Z        PSCENC =         8.03112185
  Ewald energy   TEWEN  =     39385.52504148
  -Hartree energ DENC   =    -45566.32590670
  -exchange      EXHF   =       567.29936136
  -V(xc)+E(xc)   XCENC  =       562.15573697
  PAW double counting   =     21534.14788068   -21556.46158868
  entropy T*S    EENTRO =        -0.00000000
  eigenvalues    EBANDS =     -3076.31588089
  atomic energy  EATOM  =      7541.07930648
  ---------------------------------------------------
  free energy    TOTEN  =      -600.86492745 eV

  energy without entropy =     -600.86492745  energy(sigma->0) =     -600.86492745
  exchange ACFDT corr.  =        -0.00000000  see jH, gK, PRB 81, 115126


--------------------------------------------------------------------------------------------------------




----------------------------------------- Iteration    1(   7)  ---------------------------------------


    POTLOK:  cpu time    3.4670: real time    3.4785
    SETDIJ:  cpu time    0.4842: real time    0.4856
    TRIAL :  cpu time  236.3905: real time  237.2543
    CORREC:  cpu time  206.8457: real time  207.5795
    CHARGE:  cpu time    2.9176: real time    2.9275
    --------------------------------------------
      LOOP:  cpu time  450.1068: real time  451.7285

 eigenvalue-minimisations  :     0
 total energy-change (2. order) :-0.3467988E-02  (-0.1589652E-02)
 number of electron     213.9999963 magnetization 
 augmentation part        5.9252977 magnetization 

 Free energy of the ion-electron system (eV)
  ---------------------------------------------------
  alpha Z        PSCENC =         8.03112185
  Ewald energy   TEWEN  =     39385.52504148
  -Hartree energ DENC   =    -45567.54344667
  -exchange      EXHF   =       567.32579293
  -V(xc)+E(xc)   XCENC  =       562.17607626
  PAW double counting   =     21495.85497445   -21518.18616811
  entropy T*S    EENTRO =        -0.00000000
  eigenvalues    EBANDS =     -3075.13109412
  atomic energy  EATOM  =      7541.07930648
  ---------------------------------------------------
  free energy    TOTEN  =      -600.86839544 eV

  energy without entropy =     -600.86839544  energy(sigma->0) =     -600.86839544
  exchange ACFDT corr.  =         0.00000000  see jH, gK, PRB 81, 115126


--------------------------------------------------------------------------------------------------------




----------------------------------------- Iteration    1(   8)  ---------------------------------------


    POTLOK:  cpu time    3.4678: real time    3.4791
    SETDIJ:  cpu time    0.4794: real time    0.4809
    TRIAL :  cpu time  236.0852: real time  236.9464
    CORREC:  cpu time  207.6003: real time  208.3434
    CHARGE:  cpu time    2.9178: real time    2.9281
    --------------------------------------------
      LOOP:  cpu time  450.5525: real time  452.1811

 eigenvalue-minimisations  :     0
 total energy-change (2. order) :-0.1592151E-02  (-0.5989246E-03)
 number of electron     213.9999963 magnetization 
 augmentation part        5.9255611 magnetization 

 Free energy of the ion-electron system (eV)
  ---------------------------------------------------
  alpha Z        PSCENC =         8.03112185
  Ewald energy   TEWEN  =     39385.52504148
  -Hartree energ DENC   =    -45568.18526259
  -exchange      EXHF   =       567.34467699
  -V(xc)+E(xc)   XCENC  =       562.19393756
  PAW double counting   =     21460.11007257   -21482.45514103
  entropy T*S    EENTRO =        -0.00000000
  eigenvalues    EBANDS =     -3074.51374090
  atomic energy  EATOM  =      7541.07930648
  ---------------------------------------------------
  free energy    TOTEN  =      -600.86998759 eV

  energy without entropy =     -600.86998759  energy(sigma->0) =     -600.86998759
  exchange ACFDT corr.  =        -0.00000000  see jH, gK, PRB 81, 115126


--------------------------------------------------------------------------------------------------------




----------------------------------------- Iteration    1(   9)  ---------------------------------------


    POTLOK:  cpu time    3.5226: real time    3.5326
    SETDIJ:  cpu time    0.4802: real time    0.4814
    TRIAL :  cpu time  236.7859: real time  237.4924
    CORREC:  cpu time  207.9086: real time  208.5216
    CHARGE:  cpu time    2.8642: real time    2.8725
    --------------------------------------------
      LOOP:  cpu time  451.5633: real time  452.9034

 eigenvalue-minimisations  :     0
 total energy-change (2. order) :-0.5994333E-03  (-0.2458296E-03)
 number of electron     213.9999963 magnetization 
 augmentation part        5.9254417 magnetization 

 Free energy of the ion-electron system (eV)
  ---------------------------------------------------
  alpha Z        PSCENC =         8.03112185
  Ewald energy   TEWEN  =     39385.52504148
  -Hartree energ DENC   =    -45567.72175325
  -exchange      EXHF   =       567.33424174
  -V(xc)+E(xc)   XCENC  =       562.18429770
  PAW double counting   =     21443.29522183   -21465.64447175
  entropy T*S    EENTRO =        -0.00000000
  eigenvalues    EBANDS =     -3074.95359311
  atomic energy  EATOM  =      7541.07930648
  ---------------------------------------------------
  free energy    TOTEN  =      -600.87058703 eV

  energy without entropy =     -600.87058703  energy(sigma->0) =     -600.87058703
  exchange ACFDT corr.  =         0.00000000  see jH, gK, PRB 81, 115126


--------------------------------------------------------------------------------------------------------




----------------------------------------- Iteration    1(  10)  ---------------------------------------


    POTLOK:  cpu time    3.4387: real time    3.4480
    SETDIJ:  cpu time    0.4796: real time    0.4808
    TRIAL :  cpu time  234.2088: real time  235.0527
    CORREC:  cpu time  209.0361: real time  209.7910
    CHARGE:  cpu time    2.9295: real time    2.9398
    --------------------------------------------
      LOOP:  cpu time  450.0947: real time  451.7155

 eigenvalue-minimisations  :     0
 total energy-change (2. order) :-0.2459073E-03  (-0.1218016E-03)
 number of electron     213.9999963 magnetization 
 augmentation part        5.9254289 magnetization 

 Free energy of the ion-electron system (eV)
  ---------------------------------------------------
  alpha Z        PSCENC =         8.03112185
  Ewald energy   TEWEN  =     39385.52504148
  -Hartree energ DENC   =    -45567.62693533
  -exchange      EXHF   =       567.32871084
  -V(xc)+E(xc)   XCENC  =       562.17824742
  PAW double counting   =     21439.64889865   -21461.99819293
  entropy T*S    EENTRO =        -0.00000000
  eigenvalues    EBANDS =     -3075.03703138
  atomic energy  EATOM  =      7541.07930648
  ---------------------------------------------------
  free energy    TOTEN  =      -600.87083293 eV

  energy without entropy =     -600.87083293  energy(sigma->0) =     -600.87083293
  exchange ACFDT corr.  =        -0.00000000  see jH, gK, PRB 81, 115126


--------------------------------------------------------------------------------------------------------




----------------------------------------- Iteration    1(  11)  ---------------------------------------


    POTLOK:  cpu time    3.4707: real time    3.4803
    SETDIJ:  cpu time    0.4799: real time    0.4811
    TRIAL :  cpu time  234.6148: real time  235.3035
    CORREC:  cpu time  209.5667: real time  210.1764
    CHARGE:  cpu time    2.8882: real time    2.8961
    --------------------------------------------
      LOOP:  cpu time  451.0218: real time  452.3402

 eigenvalue-minimisations  :     0
 total energy-change (2. order) :-0.1214739E-03  (-0.6438162E-04)
 number of electron     213.9999963 magnetization 
 augmentation part        5.9254118 magnetization 

 Free energy of the ion-electron system (eV)
  ---------------------------------------------------
  alpha Z        PSCENC =         8.03112185
  Ewald energy   TEWEN  =     39385.52504148
  -Hartree energ DENC   =    -45567.85659236
  -exchange      EXHF   =       567.33251635
  -V(xc)+E(xc)   XCENC  =       562.18061566
  PAW double counting   =     21442.87145396   -21465.21999663
  entropy T*S    EENTRO =        -0.00000000
  eigenvalues    EBANDS =     -3074.81442118
  atomic energy  EATOM  =      7541.07930648
  ---------------------------------------------------
  free energy    TOTEN  =      -600.87095441 eV

  energy without entropy =     -600.87095441  energy(sigma->0) =     -600.87095441
  exchange ACFDT corr.  =         0.00000000  see jH, gK, PRB 81, 115126


--------------------------------------------------------------------------------------------------------




----------------------------------------- Iteration    1(  12)  ---------------------------------------


    POTLOK:  cpu time    3.4992: real time    3.5088
    SETDIJ:  cpu time    0.4796: real time    0.4808
    TRIAL :  cpu time  226.9206: real time  227.5798
    CORREC:  cpu time  188.8378: real time  189.3576
    CHARGE:  cpu time    2.6065: real time    2.6130
    --------------------------------------------
      LOOP:  cpu time  422.3454: real time  423.5421

 eigenvalue-minimisations  :     0
 total energy-change (2. order) :-0.6406267E-04  (-0.3412725E-04)
 number of electron     213.9999963 magnetization 
 augmentation part        5.9253641 magnetization 

 Free energy of the ion-electron system (eV)
  ---------------------------------------------------
  alpha Z        PSCENC =         8.03112185
  Ewald energy   TEWEN  =     39385.52504148
  -Hartree energ DENC   =    -45567.85317754
  -exchange      EXHF   =       567.33329171
  -V(xc)+E(xc)   XCENC  =       562.18049922
  PAW double counting   =     21447.88654010   -21470.23400360
  entropy T*S    EENTRO =        -0.00000000
  eigenvalues    EBANDS =     -3074.81963818
  atomic energy  EATOM  =      7541.07930648
  ---------------------------------------------------
  free energy    TOTEN  =      -600.87101847 eV

  energy without entropy =     -600.87101847  energy(sigma->0) =     -600.87101847
  exchange ACFDT corr.  =         0.00000000  see jH, gK, PRB 81, 115126


--------------------------------------------------------------------------------------------------------




----------------------------------------- Iteration    1(  13)  ---------------------------------------


    POTLOK:  cpu time    3.1664: real time    3.1745
    SETDIJ:  cpu time    0.4798: real time    0.4810
    TRIAL :  cpu time  210.1284: real time  210.7052
    CORREC:  cpu time  188.9155: real time  189.4386
    CHARGE:  cpu time    2.6391: real time    2.6464
    --------------------------------------------
      LOOP:  cpu time  405.3313: real time  406.4492

 eigenvalue-minimisations  :     0
 total energy-change (2. order) :-0.3383344E-04  (-0.1465027E-04)
 number of electron     213.9999963 magnetization 
 augmentation part        5.9253602 magnetization 

 Free energy of the ion-electron system (eV)
  ---------------------------------------------------
  alpha Z        PSCENC =         8.03112185
  Ewald energy   TEWEN  =     39385.52504148
  -Hartree energ DENC   =    -45567.77042601
  -exchange      EXHF   =       567.33245539
  -V(xc)+E(xc)   XCENC  =       562.17924775
  PAW double counting   =     21451.90148467   -21474.24807635
  entropy T*S    EENTRO =        -0.00000000
  eigenvalues    EBANDS =     -3074.90120757
  atomic energy  EATOM  =      7541.07930648
  ---------------------------------------------------
  free energy    TOTEN  =      -600.87105230 eV

  energy without entropy =     -600.87105230  energy(sigma->0) =     -600.87105230
  exchange ACFDT corr.  =        -0.00000000  see jH, gK, PRB 81, 115126


--------------------------------------------------------------------------------------------------------




----------------------------------------- Iteration    1(  14)  ---------------------------------------


    POTLOK:  cpu time    3.2378: real time    3.2458
    SETDIJ:  cpu time    0.4783: real time    0.4794
    TRIAL :  cpu time  210.0212: real time  210.5963
    CORREC:  cpu time  187.6651: real time  188.1695
    CHARGE:  cpu time    2.6367: real time    2.6437
    --------------------------------------------
      LOOP:  cpu time  404.0411: real time  405.1378

 eigenvalue-minimisations  :     0
 total energy-change (2. order) :-0.1430683E-04  (-0.5296642E-05)
 number of electron     213.9999963 magnetization 
 augmentation part        5.9253581 magnetization 

 Free energy of the ion-electron system (eV)
  ---------------------------------------------------
  alpha Z        PSCENC =         8.03112185
  Ewald energy   TEWEN  =     39385.52504148
  -Hartree energ DENC   =    -45567.79227184
  -exchange      EXHF   =       567.33312345
  -V(xc)+E(xc)   XCENC  =       562.17973141
  PAW double counting   =     21453.49754302   -21475.84392390
  entropy T*S    EENTRO =        -0.00000000
  eigenvalues    EBANDS =     -3074.88073857
  atomic energy  EATOM  =      7541.07930648
  ---------------------------------------------------
  free energy    TOTEN  =      -600.87106661 eV

  energy without entropy =     -600.87106661  energy(sigma->0) =     -600.87106661
  exchange ACFDT corr.  =        -0.00000000  see jH, gK, PRB 81, 115126


--------------------------------------------------------------------------------------------------------




----------------------------------------- Iteration    1(  15)  ---------------------------------------


    POTLOK:  cpu time    3.1671: real time    3.1750
    SETDIJ:  cpu time    0.4796: real time    0.4807
    TRIAL :  cpu time  211.5569: real time  212.1389
    CORREC:  cpu time  187.3875: real time  187.8945
    CHARGE:  cpu time    2.6426: real time    2.6500
    --------------------------------------------
      LOOP:  cpu time  405.2357: real time  406.3424

 eigenvalue-minimisations  :     0
 total energy-change (2. order) :-0.5070984E-05  (-0.2279121E-05)
 number of electron     213.9999963 magnetization 
 augmentation part        5.9253481 magnetization 

 Free energy of the ion-electron system (eV)
  ---------------------------------------------------
  alpha Z        PSCENC =         8.03112185
  Ewald energy   TEWEN  =     39385.52504148
  -Hartree energ DENC   =    -45567.80271440
  -exchange      EXHF   =       567.33333883
  -V(xc)+E(xc)   XCENC  =       562.17995273
  PAW double counting   =     21453.34851110   -21475.69495517
  entropy T*S    EENTRO =        -0.00000000
  eigenvalues    EBANDS =     -3074.87067460
  atomic energy  EATOM  =      7541.07930648
  ---------------------------------------------------
  free energy    TOTEN  =      -600.87107168 eV

  energy without entropy =     -600.87107168  energy(sigma->0) =     -600.87107168
  exchange ACFDT corr.  =        -0.00000000  see jH, gK, PRB 81, 115126


--------------------------------------------------------------------------------------------------------




----------------------------------------- Iteration    1(  16)  ---------------------------------------


    POTLOK:  cpu time    3.1639: real time    3.1720
    SETDIJ:  cpu time    0.4791: real time    0.4802
    TRIAL :  cpu time  211.5026: real time  212.0884
    CORREC:  cpu time  187.5028: real time  188.0076
    CHARGE:  cpu time    2.6398: real time    2.6468
    --------------------------------------------
      LOOP:  cpu time  405.2901: real time  406.3980

 eigenvalue-minimisations  :     0
 total energy-change (2. order) :-0.2073428E-05  (-0.1183196E-05)
 number of electron     213.9999963 magnetization 
 augmentation part        5.9253375 magnetization 

 Free energy of the ion-electron system (eV)
  ---------------------------------------------------
  alpha Z        PSCENC =         8.03112185
  Ewald energy   TEWEN  =     39385.52504148
  -Hartree energ DENC   =    -45567.79817906
  -exchange      EXHF   =       567.33324329
  -V(xc)+E(xc)   XCENC  =       562.17990042
  PAW double counting   =     21452.61599032   -21474.96254159
  entropy T*S    EENTRO =        -0.00000000
  eigenvalues    EBANDS =     -3074.87495696
  atomic energy  EATOM  =      7541.07930648
  ---------------------------------------------------
  free energy    TOTEN  =      -600.87107375 eV

  energy without entropy =     -600.87107375  energy(sigma->0) =     -600.87107375
  exchange ACFDT corr.  =        -0.00000000  see jH, gK, PRB 81, 115126


--------------------------------------------------------------------------------------------------------




----------------------------------------- Iteration    1(  17)  ---------------------------------------


    POTLOK:  cpu time    3.1659: real time    3.1739
    SETDIJ:  cpu time    0.4790: real time    0.4801
    TRIAL :  cpu time  211.6159: real time  212.1943
    CORREC:  cpu time  187.5791: real time  188.0950
    CHARGE:  cpu time    2.5539: real time    2.5606
    --------------------------------------------
      LOOP:  cpu time  405.3954: real time  406.5066

 eigenvalue-minimisations  :     0
 total energy-change (2. order) :-0.8933057E-06  (-0.6164471E-06)
 number of electron     213.9999963 magnetization 
 augmentation part        5.9253294 magnetization 

 Free energy of the ion-electron system (eV)
  ---------------------------------------------------
  alpha Z        PSCENC =         8.03112185
  Ewald energy   TEWEN  =     39385.52504148
  -Hartree energ DENC   =    -45567.79823378
  -exchange      EXHF   =       567.33323187
  -V(xc)+E(xc)   XCENC  =       562.17990430
  PAW double counting   =     21451.78977987   -21474.13642451
  entropy T*S    EENTRO =        -0.00000000
  eigenvalues    EBANDS =     -3074.87480221
  atomic energy  EATOM  =      7541.07930648
  ---------------------------------------------------
  free energy    TOTEN  =      -600.87107465 eV

  energy without entropy =     -600.87107465  energy(sigma->0) =     -600.87107465
  exchange ACFDT corr.  =        -0.00000000  see jH, gK, PRB 81, 115126


--------------------------------------------------------------------------------------------------------


  average scaling for gradient   1.1109


 average (electrostatic) potential at core
  the test charge radii are     0.6991  0.5201  0.7215
  (the norm of the test charge is              1.0000)
       1 -54.8145       2 -54.7616       3 -54.8443       4 -55.2133       5 -54.8842
       6 -54.8350       7 -54.9837       8 -54.7753       9 -54.9274      10 -54.6920
      11 -54.6824      12 -54.8948      13 -55.5629      14 -56.4604      15 -56.5417
      16 -55.0701      17 -54.6445      18 -54.5883      19 -54.6521      20 -54.5768
      21 -54.6611      22 -55.1142      23 -56.5305      24 -54.8060      25 -54.4568
      26 -54.3645      27 -54.2781      28 -54.3277      29 -54.2968      30 -54.4308
      31 -54.3079      32 -54.3072      33 -54.2733      34 -54.1885      35 -54.2590
      36 -54.4087      37 -56.3836      38 -55.0869      39 -54.6531      40 -54.5588
      41 -54.6011      42 -54.5914      43 -54.6432      44 -55.0302      45 -37.2782
      46 -37.7713      47 -37.9265      48 -37.9817      49 -37.7955      50 -37.7991
      51 -37.6221      52 -37.5433      53 -37.4531      54 -37.3768      55 -37.6907
      56 -37.5125      57 -37.5789      58 -37.4873      59 -37.0564      60 -37.4709
      61 -37.3366      62 -37.1747      63 -37.3098      64 -37.2645      65 -36.9929
      66 -37.4510      67 -37.6028      68 -37.5442      69 -37.4596      70 -37.3888
      71 -75.1315      72 -75.5365
 
 
 
 E-fermi :  -4.6594     XC(G=0):  -0.2582     alpha+bet : -0.1955


 k-point     1 :       0.0000    0.0000    0.0000
  band No.  band energies     occupation 
      1     -31.0099      2.00000
      2     -30.6686      2.00000
      3     -25.4910      2.00000
      4     -25.0923      2.00000
      5     -24.5298      2.00000
      6     -24.4942      2.00000
      7     -23.8603      2.00000
      8     -23.6162      2.00000
      9     -23.3461      2.00000
     10     -23.0834      2.00000
     11     -22.8319      2.00000
     12     -22.4310      2.00000
     13     -22.1465      2.00000
     14     -21.8985      2.00000
     15     -21.5824      2.00000
     16     -21.0970      2.00000
     17     -21.0834      2.00000
     18     -21.0603      2.00000
     19     -20.9069      2.00000
     20     -20.7495      2.00000
     21     -20.4892      2.00000
     22     -20.1858      2.00000
     23     -19.9525      2.00000
     24     -19.5253      2.00000
     25     -18.9908      2.00000
     26     -18.4472      2.00000
     27     -17.8413      2.00000
     28     -17.6003      2.00000
     29     -17.4841      2.00000
     30     -17.3142      2.00000
     31     -17.2049      2.00000
     32     -17.1888      2.00000
     33     -17.0992      2.00000
     34     -16.5967      2.00000
     35     -16.3708      2.00000
     36     -16.3463      2.00000
     37     -16.1085      2.00000
     38     -15.8652      2.00000
     39     -15.8012      2.00000
     40     -15.3271      2.00000
     41     -15.1009      2.00000
     42     -14.6927      2.00000
     43     -14.5044      2.00000
     44     -14.3817      2.00000
     45     -14.1608      2.00000
     46     -14.0420      2.00000
     47     -13.8485      2.00000
     48     -13.7493      2.00000
     49     -13.5382      2.00000
     50     -13.2819      2.00000
     51     -13.1942      2.00000
     52     -13.0537      2.00000
     53     -12.9288      2.00000
     54     -12.8261      2.00000
     55     -12.6253      2.00000
     56     -12.5758      2.00000
     57     -12.5370      2.00000
     58     -12.4032      2.00000
     59     -12.3078      2.00000
     60     -12.2435      2.00000
     61     -12.1516      2.00000
     62     -11.9191      2.00000
     63     -11.8552      2.00000
     64     -11.8117      2.00000
     65     -11.7754      2.00000
     66     -11.7040      2.00000
     67     -11.6699      2.00000
     68     -11.5759      2.00000
     69     -11.4515      2.00000
     70     -11.4161      2.00000
     71     -11.3978      2.00000
     72     -11.2765      2.00000
     73     -11.2196      2.00000
     74     -10.9128      2.00000
     75     -10.7717      2.00000
     76     -10.6432      2.00000
     77     -10.4694      2.00000
     78     -10.2715      2.00000
     79     -10.1712      2.00000
     80     -10.1243      2.00000
     81     -10.0509      2.00000
     82      -9.9974      2.00000
     83      -9.9753      2.00000
     84      -9.8761      2.00000
     85      -9.8103      2.00000
     86      -9.5669      2.00000
     87      -9.5191      2.00000
     88      -9.4626      2.00000
     89      -9.0763      2.00000
     90      -9.0276      2.00000
     91      -8.9885      2.00000
     92      -8.7293      2.00000
     93      -8.5047      2.00000
     94      -8.4434      2.00000
     95      -8.2667      2.00000
     96      -8.1143      2.00000
     97      -7.9332      2.00000
     98      -7.5214      2.00000
     99      -7.3777      2.00000
    100      -7.3689      2.00000
    101      -7.1008      2.00000
    102      -7.0665      2.00000
    103      -7.0307      2.00000
    104      -6.4047      2.00000
    105      -6.0906      2.00000
    106      -5.9221      2.00000
    107      -4.9080      2.00000
    108      -3.6335      0.00000
    109      -2.7321      0.00000
    110      -1.9062      0.00000
    111      -0.9986      0.00000
    112      -0.6349      0.00000
    113      -0.5712      0.00000
    114      -0.4468      0.00000
    115      -0.2842      0.00000
    116      -0.2390      0.00000
    117      -0.1385      0.00000
    118       0.0104      0.00000
    119       0.0399      0.00000
    120       0.1098      0.00000
    121       0.1638      0.00000
    122       0.1723      0.00000
    123       0.2188      0.00000
    124       0.2390      0.00000
    125       0.2744      0.00000
    126       0.2811      0.00000
    127       0.3236      0.00000
    128       0.3324      0.00000
    129       0.3449      0.00000
    130       0.3508      0.00000
    131       0.3746      0.00000
    132       0.4005      0.00000
    133       0.4016      0.00000
    134       0.4135      0.00000
    135       0.4181      0.00000
    136       0.4280      0.00000
    137       0.4803      0.00000
    138       0.5454      0.00000
    139       0.5789      0.00000
    140       0.5980      0.00000
    141       0.7428      0.00000
    142       0.7814      0.00000
    143       0.9192      0.00000
    144       0.9946      0.00000


--------------------------------------------------------------------------------------------------------


 soft charge-density along one line, spin component           1
         0         1         2         3         4         5         6         7         8         9
 total charge-density along one line
 
 pseudopotential strength for first ion, spin component:           1
  9.965  13.250  -0.006   0.004  -0.002   0.016  -0.009   0.004
 13.250  17.617  -0.007   0.005  -0.002   0.021  -0.012   0.006
 -0.006  -0.007  -4.200  -0.001   0.002   8.200   0.002  -0.003
  0.004   0.005  -0.001  -4.207   0.001   0.002   8.213  -0.003
 -0.002  -0.002   0.002   0.001  -4.204  -0.003  -0.003   8.207
  0.016   0.021   8.200   0.002  -0.003 -18.126  -0.004   0.006
 -0.009  -0.012   0.002   8.213  -0.003  -0.004 -18.150   0.005
  0.004   0.006  -0.003  -0.003   8.207   0.006   0.005 -18.140
 total augmentation occupancy for first ion, spin component:           1
  7.207  -3.082  -0.637   0.069  -0.208  -0.103   0.022  -0.036
 -3.082   1.386   0.463  -0.075   0.152   0.056  -0.015   0.021
 -0.637   0.463   1.175   0.008  -0.122   0.082  -0.001  -0.018
  0.069  -0.075   0.008   1.584  -0.032  -0.001   0.133  -0.002
 -0.208   0.152  -0.122  -0.032   1.527  -0.018  -0.002   0.131
 -0.103   0.056   0.082  -0.001  -0.018   0.007  -0.000  -0.002
  0.022  -0.015  -0.001   0.133  -0.002  -0.000   0.012  -0.000
 -0.036   0.021  -0.018  -0.002   0.131  -0.002  -0.000   0.012


------------------------ aborting loop because EDIFF is reached ----------------------------------------


    FORLOC:  cpu time    1.6432: real time    1.6476
    FORHF :  cpu time  167.8168: real time  168.2928
    FORNL :  cpu time   30.9567: real time   31.0522
    FORCOR:  cpu time    4.2246: real time    4.2345
    OFIELD:  cpu time    0.0071: real time    0.0071

  Hirshfeld charges:
            ion         q(e)     
   ------------------------------
      1     C          -0.058
      2     C          -0.039
      3     C          -0.039
      4     C           0.004
      5     C          -0.014
      6     C          -0.039
      7     C          -0.002
      8     C          -0.046
      9     C          -0.038
     10     C          -0.047
     11     C          -0.039
     12     C          -0.012
     13     C           0.012
     14     C           0.048
     15     C           0.088
     16     C          -0.006
     17     C          -0.035
     18     C          -0.036
     19     C          -0.036
     20     C          -0.046
     21     C          -0.040
     22     C          -0.041
     23     C           0.074
     24     C          -0.019
     25     C          -0.017
     26     C          -0.048
     27     C          -0.053
     28     C          -0.047
     29     C          -0.051
     30     C          -0.006
     31     C          -0.017
     32     C          -0.049
     33     C          -0.051
     34     C          -0.056
     35     C          -0.050
     36     C          -0.014
     37     C           0.072
     38     C          -0.007
     39     C          -0.039
     40     C          -0.043
     41     C          -0.041
     42     C          -0.045
     43     C          -0.043
     44     C          -0.041
     45     H           0.037
     46     H           0.052
     47     H           0.043
     48     H           0.051
     49     H           0.045
     50     H           0.052
     51     H           0.053
     52     H           0.043
     53     H           0.046
     54     H           0.054
     55     H           0.056
     56     H           0.047
     57     H           0.043
     58     H           0.047
     59     H           0.042
     60     H           0.047
     61     H           0.048
     62     H           0.041
     63     H           0.050
     64     H           0.046
     65     H           0.033
     66     H           0.038
     67     H           0.052
     68     H           0.053
     69     H           0.052
     70     H           0.045
     71     O          -0.093
     72     O          -0.072

  Atomic reference data used in the T-S method for vdW correction:
            C6at              R0at           ALPHAat      REFSTATE
            (au)              (au)            (au)                
   ---------------------------------------------------------------
   C          46.600          3.590         12.000         0
   H           6.500          3.099          4.500         0
   O          15.600          3.194          5.400         0

  Tkatchenko/Scheffler method for vdW energy calculation
  ---------------------------------------------------------------------------------------------

  Parameters of vdW forcefield:
            C6ts              R0ts           ALPHAts        RELVOL
            (au)              (au)            (au)                
   ---------------------------------------------------------------
   C          32.334          3.378          9.996          0.833
   C          30.837          3.352          9.762          0.813
   C          32.015          3.373          9.946          0.829
   C          34.098          3.408         10.265          0.855
   C          33.189          3.393         10.127          0.844
   C          30.807          3.351          9.757          0.813
   C          32.851          3.387         10.075          0.840
   C          30.624          3.348          9.728          0.811
   C          30.876          3.352          9.768          0.814
   C          30.109          3.338          9.646          0.804
   C          31.241          3.359          9.825          0.819
   C          33.914          3.405         10.237          0.853
   C          34.495          3.415         10.324          0.860
   C          34.853          3.421         10.378          0.865
   C          32.972          3.389         10.094          0.841
   C          33.114          3.392         10.116          0.843
   C          31.713          3.367          9.899          0.825
   C          30.528          3.346          9.713          0.809
   C          29.797          3.333          9.596          0.800
   C          30.107          3.338          9.645          0.804
   C          31.195          3.358          9.818          0.818
   C          34.341          3.412         10.301          0.858
   C          33.537          3.399         10.180          0.848
   C          34.147          3.409         10.272          0.856
   C          34.392          3.413         10.309          0.859
   C          31.444          3.363          9.857          0.821
   C          31.010          3.355          9.789          0.816
   C          30.427          3.344          9.697          0.808
   C          30.726          3.350          9.744          0.812
   C          33.541          3.399         10.181          0.848
   C          33.367          3.396         10.154          0.846
   C          30.967          3.354          9.782          0.815
   C          30.385          3.343          9.690          0.807
   C          30.516          3.346          9.711          0.809
   C          31.749          3.368          9.905          0.825
   C          34.018          3.407         10.253          0.854
   C          33.167          3.393         10.124          0.844
   C          33.135          3.392         10.119          0.843
   C          31.567          3.365          9.877          0.823
   C          29.892          3.334          9.611          0.801
   C          29.821          3.333          9.599          0.800
   C          30.077          3.338          9.641          0.803
   C          31.060          3.356          9.797          0.816
   C          34.954          3.422         10.393          0.866
   H           2.633          2.666          2.864          0.636
   H           2.399          2.625          2.734          0.608
   H           3.244          2.760          3.179          0.706
   H           2.448          2.634          2.761          0.614
   H           2.515          2.646          2.799          0.622
   H           2.416          2.628          2.744          0.610
   H           2.318          2.610          2.687          0.597
   H           2.977          2.721          3.045          0.677
   H           3.111          2.741          3.113          0.692
   H           2.438          2.632          2.756          0.612
   H           2.257          2.598          2.652          0.589
   H           2.349          2.616          2.705          0.601
   H           3.047          2.731          3.081          0.685
   H           2.746          2.685          2.925          0.650
   H           2.463          2.636          2.770          0.616
   H           2.378          2.621          2.722          0.605
   H           2.511          2.645          2.797          0.622
   H           2.610          2.662          2.851          0.634
   H           2.368          2.619          2.716          0.604
   H           2.386          2.622          2.726          0.606
   H           3.015          2.727          3.065          0.681
   H           3.233          2.759          3.174          0.705
   H           2.296          2.606          2.674          0.594
   H           2.294          2.605          2.673          0.594
   H           2.318          2.610          2.687          0.597
   H           2.756          2.686          2.930          0.651
   O          12.616          3.083          4.856          0.899
   O          12.409          3.074          4.816          0.892

  IVDW =   2
  VDW_RADIUS =    50.000 A
  VDW_IDAMPF =  0
  VDW_S6 =     1.000
  VDW_SR =     0.940
  VDW_D =    20.000
  LVDW_ONECELL = F F F
  LVDW_SAMETYPE T T T
  LVDW_EWALD = F

  Number of pair interactions contributing to vdW energy:   54778
  Edisp (eV):   -1.69940
    FORVDW:  cpu time   14.5780: real time   14.6114

 VOLUME and BASIS-vectors are now :
 -----------------------------------------------------------------------------
  energy-cutoff  :      500.00
  volume of cell :    27000.00
      direct lattice vectors                 reciprocal lattice vectors
    30.000000000  0.000000000  0.000000000     0.033333333  0.000000000  0.000000000
     0.000000000 30.000000000  0.000000000     0.000000000  0.033333333  0.000000000
     0.000000000  0.000000000 30.000000000     0.000000000  0.000000000  0.033333333

  length of vectors
    30.000000000 30.000000000 30.000000000     0.033333333  0.033333333  0.033333333


 FORCES acting on ions:
    Electron-Ion                     Ewald-Force                    Non-Local-Force
 -----------------------------------------------------------------------------------------------
   -.188E+03 -.969E+02 0.295E+03   0.188E+03 0.986E+02 -.296E+03   -.237E+01 -.744E+01 0.243E+01
   -.168E+00 0.135E+02 0.333E+03   0.215E+01 -.149E+02 -.335E+03   0.162E+01 0.269E+01 0.696E-01
   0.389E+02 0.151E+02 0.191E+03   -.397E+02 -.158E+02 -.190E+03   0.183E+01 0.227E+01 -.668E+00
   -.157E+03 -.148E+03 0.108E+03   0.158E+03 0.150E+03 -.110E+03   -.260E+01 -.449E+01 0.850E+00
   -.234E+03 0.487E+02 0.103E+03   0.234E+03 -.486E+02 -.102E+03   -.571E+00 0.223E+01 0.189E+01
   -.273E+03 0.821E+02 0.219E+03   0.272E+03 -.822E+02 -.224E+03   0.620E+00 0.237E+01 0.101E+01
   -.233E+03 0.851E+02 0.458E+02   0.232E+03 -.841E+02 -.448E+02   -.127E+01 0.113E+01 0.424E+00
   -.292E+03 0.167E+03 0.435E+02   0.294E+03 -.169E+03 -.418E+02   0.306E+00 0.604E+00 0.562E+00
   -.281E+03 0.172E+03 -.113E+03   0.282E+03 -.172E+03 0.114E+03   -.361E+01 0.215E+00 -.178E+01
   -.183E+03 0.126E+03 -.260E+03   0.186E+03 -.129E+03 0.260E+03   0.140E+01 -.562E-02 -.876E+00
   -.107E+03 0.182E+01 -.246E+03   0.105E+03 0.611E+00 0.246E+03   0.426E+00 0.322E+00 -.205E+01
   -.176E+03 0.181E+02 -.117E+03   0.178E+03 -.205E+02 0.119E+03   0.105E+01 -.597E+00 -.955E-01
   -.149E+03 -.993E+02 -.315E+02   0.144E+03 0.992E+02 0.315E+02   0.243E+01 0.350E+01 0.203E+01
   -.187E+03 -.270E+03 -.174E+03   0.193E+03 0.277E+03 0.170E+03   -.559E+01 -.927E+01 -.752E-01
   0.524E+02 0.831E+02 -.166E+03   -.572E+02 -.877E+02 0.165E+03   0.477E+01 0.420E+01 0.253E+01
   0.717E+01 0.733E+02 -.155E+03   -.718E+01 -.751E+02 0.156E+03   0.159E+01 0.120E+01 -.505E+00
   0.163E+03 0.974E+01 -.195E+03   -.166E+03 -.868E+01 0.196E+03   0.797E+00 -.347E+00 -.395E-01
   0.213E+03 0.145E+03 -.208E+03   -.215E+03 -.146E+03 0.208E+03   0.789E+00 0.203E+00 -.113E+00
   0.842E+02 0.290E+03 -.192E+03   -.850E+02 -.291E+03 0.192E+03   0.111E+00 0.124E+01 -.451E+00
   -.101E+03 0.290E+03 -.143E+03   0.102E+03 -.291E+03 0.143E+03   -.294E+00 0.255E+00 -.952E-01
   -.153E+03 0.194E+03 -.110E+03   0.155E+03 -.194E+03 0.110E+03   -.114E+01 0.169E+00 0.206E+00
   0.681E+02 0.292E+02 -.184E+02   -.692E+02 -.276E+02 0.172E+02   0.178E+01 0.493E+00 -.243E+01
   0.592E+02 0.757E+02 0.183E+03   -.599E+02 -.844E+02 -.184E+03   -.106E+01 0.896E+01 0.438E+01
   0.861E+02 -.275E+02 0.995E+02   -.855E+02 0.291E+02 -.973E+02   0.332E+00 0.181E+01 -.245E+01
   0.572E+02 0.114E+03 0.140E+03   -.573E+02 -.118E+03 -.140E+03   -.106E+01 -.548E+00 0.556E+00
   -.771E+02 0.161E+03 0.178E+03   0.782E+02 -.159E+03 -.178E+03   -.125E+01 0.227E+01 0.103E+01
   0.177E+02 0.302E+03 0.162E+03   -.193E+02 -.305E+03 -.162E+03   -.338E+00 -.420E+00 -.424E-01
   0.166E+03 0.292E+03 0.104E+03   -.165E+03 -.293E+03 -.104E+03   0.187E+01 0.568E+00 -.376E+00
   0.301E+03 0.159E+03 0.344E+02   -.303E+03 -.159E+03 -.340E+02   0.286E+00 -.124E+00 -.657E-01
   0.224E+03 0.101E+03 0.525E+02   -.223E+03 -.102E+03 -.529E+02   0.207E+00 -.672E-01 -.629E-01
   0.260E+03 0.285E+02 0.751E+01   -.260E+03 -.278E+02 -.747E+01   0.108E+01 0.419E+00 0.296E+00
   0.326E+03 0.457E+02 -.279E+02   -.328E+03 -.466E+02 0.278E+02   0.565E+00 -.549E+00 -.736E-01
   0.317E+03 -.117E+03 -.792E+02   -.318E+03 0.118E+03 0.796E+02   0.908E+00 -.182E+00 -.236E+00
   0.184E+03 -.260E+03 -.859E+02   -.185E+03 0.260E+03 0.864E+02   0.717E+00 -.727E+00 -.396E+00
   0.911E+02 -.242E+03 -.460E+02   -.900E+02 0.244E+03 0.460E+02   0.608E+00 -.429E+00 0.844E-01
   0.128E+03 -.109E+03 0.107E+02   -.128E+03 0.110E+03 -.115E+02   0.290E+00 -.397E+00 -.103E+00
   -.141E+02 -.234E+03 0.423E+02   0.203E+02 0.238E+03 -.404E+02   -.583E+01 -.354E+01 -.200E+01
   -.732E-01 -.169E+03 0.299E+02   -.182E+00 0.171E+03 -.306E+02   -.148E+01 -.125E+01 0.206E+00
   -.196E+03 -.129E+03 0.410E+02   0.199E+03 0.128E+03 -.414E+02   -.903E+00 0.354E+00 0.441E+00
   -.220E+03 -.205E+03 0.634E+02   0.221E+03 0.205E+03 -.634E+02   -.889E+00 -.704E+00 0.255E+00
   -.707E+02 -.314E+03 0.762E+02   0.708E+02 0.316E+03 -.765E+02   -.461E+00 -.646E+00 0.164E+00
   0.123E+03 -.293E+03 0.517E+02   -.124E+03 0.294E+03 -.520E+02   0.447E+00 -.543E+00 0.136E+00
   0.173E+03 -.204E+03 0.220E+02   -.174E+03 0.203E+03 -.218E+02   0.484E+00 -.542E+00 0.210E-01
   -.800E+02 -.173E+03 -.632E+02   0.815E+02 0.172E+03 0.639E+02   -.131E+01 -.838E+00 0.106E+01
   -.425E+02 0.257E+02 0.101E+03   0.438E+02 -.272E+02 -.105E+03   -.117E+01 0.273E+01 0.425E+01
   0.325E+02 0.152E+02 0.107E+03   -.367E+02 -.160E+02 -.112E+03   0.363E+01 0.974E+00 0.460E+01
   0.463E+02 0.211E+02 0.606E+02   -.530E+02 -.214E+02 -.594E+02   0.587E+01 0.694E+00 -.283E+00
   -.926E+02 0.530E+02 0.502E+02   0.983E+02 -.573E+02 -.519E+02   -.462E+01 0.378E+01 0.974E+00
   -.907E+02 0.522E+02 0.485E+02   0.952E+02 -.550E+02 -.533E+02   -.368E+01 0.198E+01 0.422E+01
   -.561E+02 0.905E+02 -.232E+02   0.584E+02 -.958E+02 0.242E+02   -.113E+01 0.544E+01 -.585E+00
   -.355E+02 0.361E+02 -.101E+03   0.357E+02 -.380E+02 0.106E+03   -.191E+00 0.158E+01 -.542E+01
   -.541E+01 -.170E+02 -.107E+03   0.968E+00 0.195E+02 0.112E+03   0.380E+01 -.206E+01 -.425E+01
   0.679E+02 -.361E+02 -.556E+02   -.720E+02 0.410E+02 0.548E+02   0.376E+01 -.440E+01 0.739E+00
   0.901E+02 0.346E+02 -.578E+02   -.951E+02 -.349E+02 0.589E+02   0.530E+01 0.471E+00 -.119E+01
   0.345E+02 0.963E+02 -.542E+02   -.366E+02 -.101E+03 0.564E+02   0.221E+01 0.481E+01 -.212E+01
   -.493E+02 0.979E+02 -.348E+02   0.532E+02 -.103E+03 0.356E+02   -.346E+01 0.447E+01 -.867E+00
   -.727E+02 0.524E+02 -.147E+02   0.786E+02 -.519E+02 0.134E+02   -.556E+01 -.713E+00 0.134E+01
   -.597E+02 0.432E+02 0.569E+02   0.659E+02 -.427E+02 -.582E+02   -.566E+01 -.629E+00 0.107E+01
   -.256E+02 0.975E+02 0.498E+02   0.280E+02 -.102E+03 -.515E+02   -.293E+01 0.411E+01 0.181E+01
   0.565E+02 0.983E+02 0.255E+02   -.595E+02 -.104E+03 -.265E+02   0.266E+01 0.524E+01 0.881E+00
   0.109E+03 0.421E+02 -.302E+01   -.115E+03 -.426E+02 0.411E+01   0.539E+01 0.937E+00 -.943E+00
   0.105E+03 0.418E+02 -.595E+01   -.110E+03 -.455E+02 0.596E+01   0.418E+01 0.364E+01 0.361E-01
   0.101E+03 -.377E+02 -.290E+02   -.106E+03 0.393E+02 0.306E+02   0.499E+01 -.195E+01 -.164E+01
   0.426E+02 -.973E+02 -.315E+02   -.433E+02 0.103E+03 0.332E+02   0.639E+00 -.543E+01 -.158E+01
   -.223E+00 -.891E+02 -.174E+02   0.411E+01 0.926E+02 0.173E+02   -.421E+01 -.340E+01 0.430E-01
   -.819E+02 -.137E+02 0.727E+01   0.861E+02 0.962E+01 -.683E+01   -.389E+01 0.407E+01 -.548E+00
   -.925E+02 -.533E+02 0.199E+02   0.990E+02 0.545E+02 -.209E+02   -.570E+01 -.122E+01 0.853E+00
   -.257E+02 -.102E+03 0.256E+02   0.272E+02 0.107E+03 -.270E+02   -.140E+01 -.521E+01 0.133E+01
   0.564E+02 -.905E+02 0.148E+02   -.601E+02 0.942E+02 -.152E+02   0.370E+01 -.400E+01 0.546E+00
   0.849E+02 -.465E+02 -.283E+00   -.900E+02 0.454E+02 0.101E+01   0.524E+01 0.139E+01 -.829E+00
   -.144E+03 -.664E+02 -.529E+03   0.163E+03 0.561E+02 0.568E+03   -.168E+02 0.815E+01 -.330E+02
   0.264E+03 -.292E+03 0.301E+03   -.297E+03 0.315E+03 -.323E+03   0.286E+02 -.191E+02 0.185E+02
 -----------------------------------------------------------------------------------------------
   -.170E+02 -.956E+01 0.833E+01   0.171E-12 0.398E-12 -.119E-11   0.149E+02 0.102E+02 -.644E+01
 
 
 POSITION                                       TOTAL-FORCE (eV/Angst)
 -----------------------------------------------------------------------------------
     19.21465     15.36062     11.29777        -2.300179     -6.195324      1.796904
     17.73583     15.23439     11.57524         3.704914      1.402796     -1.340142
     17.27778     15.33226     12.84865         1.188961      1.709235      0.561673
     18.27625     15.55821     13.87635        -1.886132     -3.365708     -1.010665
     19.40835     14.64553     13.62999        -1.365361      2.519507      2.555716
     19.86533     14.54583     12.39561         0.087891      2.475656     -3.245526
     19.72481     14.03815     14.90420        -2.203516      2.217031      1.497754
     20.63667     13.15053     15.30195         1.940288     -2.067471      2.341058
     20.76530     12.67672     16.67575        -3.332446      0.739394     -1.411237
     19.81109     13.22602     17.63086         3.513049     -2.579007     -0.695927
     18.89877     14.10495     17.25325        -1.678029      2.744902     -2.251950
     18.78854     14.57134     15.88388         3.016421     -3.066179      1.795465
     17.93945     15.45728     15.27550        -2.278326      3.595708      2.149837
     16.90234     16.15476     16.06538        -0.420930     -2.871378     -3.976474
     15.21632     14.62266     16.45722         0.199202     -0.043675      0.968645
     14.62478     13.42073     17.02139         1.666688     -0.607339      0.441510
     13.30529     13.24981     17.34423        -1.449089      0.662409      0.019500
     12.80220     12.06866     17.85752        -0.545638     -0.448023      0.225219
     13.64143     10.98117     18.07102        -0.599773      0.791985     -0.165340
     14.97112     11.14922     17.74780         0.627563     -0.800727      0.124479
     15.46726     12.32929     17.23606         0.203443      0.172545      0.037489
     14.81404     15.33126     15.42034         0.913321      2.180800     -3.739330
     13.84135     15.49528     14.34839        -1.796920      0.793863      3.753036
     12.53785     14.92489     14.50361         0.913567      3.420353     -0.466925
     12.17974     13.64560     14.24068        -1.259749     -4.371675     -0.348718
     12.91047     12.46890     13.74735        -0.297163      4.419934      1.328458
     12.23290     11.35323     13.58873        -2.010365     -3.359946     -0.427500
     10.79951     11.21823     13.87595         3.243487     -0.404357     -0.817441
     10.12135     12.28579     14.33077        -1.166207      0.101413      0.306660
     10.76558     13.49285     14.52751         0.996794     -0.811044     -0.486853
     10.24146     14.73085     14.97422         0.245556      1.141498      0.357822
      8.98875     15.17965     15.37341        -0.723760     -1.509250     -0.142628
      8.75017     16.47574     15.76939        -0.040736      0.475961      0.098477
      9.80895     17.35942     15.76602         0.415105      0.122885      0.075590
     11.06078     16.91990     15.36966         1.727657      1.375668      0.066661
     11.32384     15.63208     14.97025        -0.274904      0.157013     -0.851559
     15.11531     17.40607     14.48907        -0.034021     -0.032619     -0.201776
     15.56442     18.74766     14.14288        -1.817347      0.589706     -0.483626
     16.87196     19.08607     13.93319         1.474892     -0.296477      0.033214
     17.25347     20.38858     13.59701         0.229318     -0.821974      0.263410
     16.32429     21.38064     13.46466        -0.425412      0.668748     -0.123347
     14.98683     21.06790     13.67163        -0.354401      0.695946     -0.105446
     14.62788     19.78608     14.00051        -1.221267     -0.820737      0.199343
     15.72967     16.50633     15.24489         0.052320     -1.637787      1.845698
     19.47512     14.82007     10.36178         0.105676      1.432679     -0.058205
     17.07737     15.06828     10.75106        -0.351402      0.177206     -0.473703
     16.21711     15.22548     12.93433        -0.470007      0.408995      0.852078
     20.67836     13.89245     12.21273         0.879432     -0.319736     -0.622955
     21.29453     12.78387     14.54964         0.603928     -0.657810     -0.354803
     21.03663     11.63045     16.80446         1.162500      0.473139      0.344786
     19.84459     12.91340     18.67078        -0.000399     -0.214259     -0.140706
     18.23558     14.47207     18.00334        -0.461004      0.368885      0.169141
     12.61637     14.06729     17.20761        -0.141935      0.214486     -0.066394
     11.73155     11.97935     18.10065         0.591340      0.214629     -0.183819
     13.23140     10.06250     18.47384         0.227638     -0.034504     -0.028761
     15.63140     10.30926     17.90865         0.254415     -0.019361     -0.041844
     16.51225     12.45419     16.98490         0.114946     -0.250295      0.065029
     13.96078     12.57846     13.54372         0.264844     -0.162704     -0.137301
     12.81928     10.49557     13.21722        -0.671915      0.154160      0.197566
     10.32218     10.27771     13.71726        -0.198848     -0.516883     -0.124957
      9.06086     12.12411     14.52342         0.097496      0.457182      0.091123
      8.16735     14.46325     15.36825         0.044321      0.107447      0.043724
      7.77491     16.84082     16.08454         0.032589     -0.353394     -0.131474
      9.68492     18.39097     16.06643        -0.056187      0.037146      0.018821
     11.90815     17.62291     15.36656        -0.538879     -0.120893     -0.012378
     17.62244     18.30536     14.03851         0.078991      0.206724     -0.152556
     18.29007     20.60696     13.44243         0.452787      0.004776     -0.070352
     16.60361     22.40416     13.20168         0.023444     -0.350364      0.055818
     14.24008     21.86594     13.56468         0.174331     -0.492827      0.117571
     13.57632     19.51396     14.16913         0.394616      0.357949     -0.134283
     16.35722     15.22083     16.97809         0.036443     -0.756200      1.237900
     13.90546     16.84917     14.05461         0.472076      0.569570     -1.010269
 -----------------------------------------------------------------------------------
    total drift:                               -0.004212      0.048614     -0.089167


--------------------------------------------------------------------------------------------------------



  FREE ENERGIE OF THE ION-ELECTRON SYSTEM (eV)
  ---------------------------------------------------
  free  energy   TOTEN  =      -602.57047353 eV

  energy  without entropy=     -602.57047353  energy(sigma->0) =     -602.57047353
 


--------------------------------------------------------------------------------------------------------


    POTLOK:  cpu time    3.5657: real time    3.5748


--------------------------------------------------------------------------------------------------------


 stress matrix after NEB project (eV)
     -1.80748      0.04213     -0.08355
      0.04213     -1.39204      0.22533
     -0.08355      0.22533     -1.03279
  FORCES: max atom, RMS     6.848484    2.453138
  FORCE total and by dimension   20.815570    6.195324
  Stress total and by dimension    2.527938    1.807476
     LOOP+:  cpu time 7644.4968: real time 7669.6589
    4ORBIT:  cpu time    0.0000: real time    0.0000

 total amount of memory used by VASP on root node  2222707. kBytes
========================================================================

   base      :      30000. kBytes
   nonl-proj :     460567. kBytes
   fftplans  :     338850. kBytes
   grid      :     799755. kBytes
   one-center:        110. kBytes
   HF        :         13. kBytes
   nonlr-proj:        825. kBytes
   wavefun   :     592587. kBytes
 
  
  
 General timing and accounting informations for this job:
 ========================================================
  
                  Total CPU time used (sec):     7678.623
                            User time (sec):     7610.930
                          System time (sec):       67.693
                         Elapsed time (sec):     7708.138
  
                   Maximum memory used (kb):     3035260.
                   Average memory used (kb):           0.
  
                          Minor page faults:       694866
                          Major page faults:          172
                 Voluntary context switches:         2762
