 vasp.5.4.1 24Jun15 (build Feb 10 2025 21:25:14) gamma-only                     
  
 executed on           IFC91_ompi date 2026.02.18  15:56:15
 running on    4 total cores
 distrk:  each k-point on    4 cores,    1 groups
 distr:  one band on NCORES_PER_BAND=   1 cores,    4 groups


--------------------------------------------------------------------------------------------------------


 INCAR:
 POTCAR:    PAW_PBE C 08Apr2002                   
 POTCAR:    PAW_PBE Cl 06Sep2000                  
 POTCAR:    PAW_PBE H 15Jun2001                   
 POTCAR:    PAW_PBE N 08Apr2002                   
 POTCAR:    PAW_PBE O 08Apr2002                   
 POTCAR:    PAW_PBE C 08Apr2002                   
   VRHFIN =C: s2p2                                                              
   LEXCH  = PE                                                                  
   EATOM  =   147.1560 eV,   10.8157 Ry                                         
                                                                                
   TITEL  = PAW_PBE C 08Apr2002                                                 
   LULTRA =        F    use ultrasoft PP ?                                      
   IUNSCR =        1    unscreen: 0-lin 1-nonlin 2-no                           
   RPACOR =    1.200    partial core radius                                     
   POMASS =   12.011; ZVAL   =    4.000    mass and valenz                      
   RCORE  =    1.500    outmost cutoff radius                                   
   RWIGS  =    1.630; RWIGS  =    0.863    wigner-seitz radius (au A)           
   ENMAX  =  400.000; ENMIN  =  300.000 eV                                      
   ICORE  =        2    local potential                                         
   LCOR   =        T    correct aug charges                                     
   LPAW   =        T    paw PP                                                  
   EAUG   =  644.873                                                            
   DEXC   =    0.000                                                            
   RMAX   =    1.529    core radius for proj-oper                               
   RAUG   =    1.300    factor for augmentation sphere                          
   RDEP   =    1.501    radius for radial grids                                 
   RDEPT  =    1.300    core radius for aug-charge                              
                                                                                
   Atomic configuration                                                         
    4 entries                                                                   
     n  l   j            E        occ.                                          
     1  0  0.50      -273.3789   2.0000                                         
     2  0  0.50       -13.7508   2.0000                                         
     2  1  0.50        -5.2854   2.0000                                         
     3  2  1.50        -5.4423   0.0000                                         
   Description                                                                  
     l       E           TYP  RCUT    TYP  RCUT                                 
     0    -13.7508458     23  1.200                                             
     0     -8.2022199     23  1.200                                             
     1     -5.2854383     23  1.500                                             
     1     34.0145650     23  1.500                                             
     2     -5.4423304      7  1.500                                             
  local pseudopotential read in
  partial core-charges read in
  partial kinetic energy density read in
  atomic valenz-charges read in
  non local Contribution for L=           0  read in
    real space projection operators read in
  non local Contribution for L=           0  read in
    real space projection operators read in
  non local Contribution for L=           1  read in
    real space projection operators read in
  non local Contribution for L=           1  read in
    real space projection operators read in
    PAW grid and wavefunctions read in
 
   number of l-projection  operators is LMAX  =           4
   number of lm-projection operators is LMMAX =           8
 
 POTCAR:    PAW_PBE Cl 06Sep2000                  
   VRHFIN =Cl: s2p5                                                             
   LEXCH  = PE                                                                  
   EATOM  =   409.7259 eV,   30.1140 Ry                                         
                                                                                
   TITEL  = PAW_PBE Cl 06Sep2000                                                
   LULTRA =        F    use ultrasoft PP ?                                      
   IUNSCR =        1    unscreen: 0-lin 1-nonlin 2-no                           
   RPACOR =    1.500    partial core radius                                     
   POMASS =   35.453; ZVAL   =    7.000    mass and valenz                      
   RCORE  =    1.900    outmost cutoff radius                                   
   RWIGS  =    2.100; RWIGS  =    1.111    wigner-seitz radius (au A)           
   ENMAX  =  262.472; ENMIN  =  196.854 eV                                      
   ICORE  =        2    local potential                                         
   LCOR   =        T    correct aug charges                                     
   LPAW   =        T    paw PP                                                  
   EAUG   =  356.192                                                            
   DEXC   =    0.000                                                            
   RMAX   =    1.945    core radius for proj-oper                               
   RAUG   =    1.300    factor for augmentation sphere                          
   RDEP   =    2.020    radius for radial grids                                 
   RDEPT  =    1.678    core radius for aug-charge                              
                                                                                
   Atomic configuration                                                         
    6 entries                                                                   
     n  l   j            E        occ.                                          
     1  0  0.50     -2751.1850   2.0000                                         
     2  0  0.50      -252.6861   2.0000                                         
     2  1  1.50      -191.6157   6.0000                                         
     3  0  0.50       -20.6916   2.0000                                         
     3  1  0.50        -8.5949   5.0000                                         
     3  2  1.50        -8.1635   0.0000                                         
   Description                                                                  
     l       E           TYP  RCUT    TYP  RCUT                                 
     0    -20.6915656     23  1.900                                             
     0    -22.0521482     23  1.900                                             
     1     -8.5948577     23  1.900                                             
     1     -5.3847331     23  1.900                                             
     2     -8.1634956     23  1.900                                             
  local pseudopotential read in
  partial core-charges read in
  partial kinetic energy density read in
  atomic valenz-charges read in
  non local Contribution for L=           0  read in
    real space projection operators read in
  non local Contribution for L=           0  read in
    real space projection operators read in
  non local Contribution for L=           1  read in
    real space projection operators read in
  non local Contribution for L=           1  read in
    real space projection operators read in
    PAW grid and wavefunctions read in
 
   number of l-projection  operators is LMAX  =           4
   number of lm-projection operators is LMMAX =           8
 
 POTCAR:    PAW_PBE H 15Jun2001                   
   VRHFIN =H: ultrasoft test                                                    
   LEXCH  = PE                                                                  
   EATOM  =    12.4884 eV,    0.9179 Ry                                         
                                                                                
   TITEL  = PAW_PBE H 15Jun2001                                                 
   LULTRA =        F    use ultrasoft PP ?                                      
   IUNSCR =        0    unscreen: 0-lin 1-nonlin 2-no                           
   RPACOR =    0.000    partial core radius                                     
   POMASS =    1.000; ZVAL   =    1.000    mass and valenz                      
   RCORE  =    1.100    outmost cutoff radius                                   
   RWIGS  =    0.700; RWIGS  =    0.370    wigner-seitz radius (au A)           
   ENMAX  =  250.000; ENMIN  =  200.000 eV                                      
   RCLOC  =    0.701    cutoff for local pot                                    
   LCOR   =        T    correct aug charges                                     
   LPAW   =        T    paw PP                                                  
   EAUG   =  400.000                                                            
   RMAX   =    1.123    core radius for proj-oper                               
   RAUG   =    1.200    factor for augmentation sphere                          
   RDEP   =    1.112    radius for radial grids                                 
   RDEPT  =    0.926    core radius for aug-charge                              
                                                                                
   Atomic configuration                                                         
    2 entries                                                                   
     n  l   j            E        occ.                                          
     1  0  0.50        -6.4927   1.0000                                         
     2  1  0.50        -3.4015   0.0000                                         
   Description                                                                  
     l       E           TYP  RCUT    TYP  RCUT                                 
     0     -6.4927494     23  1.100                                             
     0      6.8029130     23  1.100                                             
     1     -4.0817478     23  1.100                                             
  local pseudopotential read in
  atomic valenz-charges read in
  non local Contribution for L=           0  read in
    real space projection operators read in
  non local Contribution for L=           0  read in
    real space projection operators read in
  non local Contribution for L=           1  read in
    real space projection operators read in
    PAW grid and wavefunctions read in
 
   number of l-projection  operators is LMAX  =           3
   number of lm-projection operators is LMMAX =           5
 
 POTCAR:    PAW_PBE N 08Apr2002                   
   VRHFIN =N: s2p3                                                              
   LEXCH  = PE                                                                  
   EATOM  =   264.5486 eV,   19.4438 Ry                                         
                                                                                
   TITEL  = PAW_PBE N 08Apr2002                                                 
   LULTRA =        F    use ultrasoft PP ?                                      
   IUNSCR =        1    unscreen: 0-lin 1-nonlin 2-no                           
   RPACOR =    1.200    partial core radius                                     
   POMASS =   14.001; ZVAL   =    5.000    mass and valenz                      
   RCORE  =    1.500    outmost cutoff radius                                   
   RWIGS  =    1.400; RWIGS  =    0.741    wigner-seitz radius (au A)           
   ENMAX  =  400.000; ENMIN  =  300.000 eV                                      
   ICORE  =        2    local potential                                         
   LCOR   =        T    correct aug charges                                     
   LPAW   =        T    paw PP                                                  
   EAUG   =  627.112                                                            
   DEXC   =    0.000                                                            
   RMAX   =    1.529    core radius for proj-oper                               
   RAUG   =    1.300    factor for augmentation sphere                          
   RDEP   =    1.514    radius for radial grids                                 
   RDEPT  =    1.338    core radius for aug-charge                              
                                                                                
   Atomic configuration                                                         
    4 entries                                                                   
     n  l   j            E        occ.                                          
     1  0  0.50      -384.7179   2.0000                                         
     2  0  0.50       -18.5828   2.0000                                         
     2  1  0.50        -7.0898   3.0000                                         
     3  2  1.50        -6.8029   0.0000                                         
   Description                                                                  
     l       E           TYP  RCUT    TYP  RCUT                                 
     0    -18.5828119     23  1.200                                             
     0    -13.5018863     23  1.200                                             
     1     -7.0897853     23  1.500                                             
     1      9.5240782     23  1.500                                             
     2     -6.8029130      7  1.500                                             
  local pseudopotential read in
  partial core-charges read in
  partial kinetic energy density read in
  atomic valenz-charges read in
  non local Contribution for L=           0  read in
    real space projection operators read in
  non local Contribution for L=           0  read in
    real space projection operators read in
  non local Contribution for L=           1  read in
    real space projection operators read in
  non local Contribution for L=           1  read in
    real space projection operators read in
    PAW grid and wavefunctions read in
 
   number of l-projection  operators is LMAX  =           4
   number of lm-projection operators is LMMAX =           8
 
 POTCAR:    PAW_PBE O 08Apr2002                   
   VRHFIN =O: s2p4                                                              
   LEXCH  = PE                                                                  
   EATOM  =   432.3788 eV,   31.7789 Ry                                         
                                                                                
   TITEL  = PAW_PBE O 08Apr2002                                                 
   LULTRA =        F    use ultrasoft PP ?                                      
   IUNSCR =        1    unscreen: 0-lin 1-nonlin 2-no                           
   RPACOR =    1.200    partial core radius                                     
   POMASS =   16.000; ZVAL   =    6.000    mass and valenz                      
   RCORE  =    1.520    outmost cutoff radius                                   
   RWIGS  =    1.550; RWIGS  =    0.820    wigner-seitz radius (au A)           
   ENMAX  =  400.000; ENMIN  =  300.000 eV                                      
   ICORE  =        2    local potential                                         
   LCOR   =        T    correct aug charges                                     
   LPAW   =        T    paw PP                                                  
   EAUG   =  605.392                                                            
   DEXC   =    0.000                                                            
   RMAX   =    1.553    core radius for proj-oper                               
   RAUG   =    1.300    factor for augmentation sphere                          
   RDEP   =    1.550    radius for radial grids                                 
   RDEPT  =    1.329    core radius for aug-charge                              
                                                                                
   Atomic configuration                                                         
    4 entries                                                                   
     n  l   j            E        occ.                                          
     1  0  0.50      -514.6923   2.0000                                         
     2  0  0.50       -23.9615   2.0000                                         
     2  1  0.50        -9.0305   4.0000                                         
     3  2  1.50        -9.5241   0.0000                                         
   Description                                                                  
     l       E           TYP  RCUT    TYP  RCUT                                 
     0    -23.9615318     23  1.200                                             
     0     -9.5240782     23  1.200                                             
     1     -9.0304911     23  1.520                                             
     1      8.1634956     23  1.520                                             
     2     -9.5240782      7  1.500                                             
  local pseudopotential read in
  partial core-charges read in
  partial kinetic energy density read in
  kinetic energy density of atom read in
  atomic valenz-charges read in
  non local Contribution for L=           0  read in
    real space projection operators read in
  non local Contribution for L=           0  read in
    real space projection operators read in
  non local Contribution for L=           1  read in
    real space projection operators read in
  non local Contribution for L=           1  read in
    real space projection operators read in
    PAW grid and wavefunctions read in
 
   number of l-projection  operators is LMAX  =           4
   number of lm-projection operators is LMMAX =           8
 

 ----------------------------------------------------------------------------- 
|                                                                             |
|  ADVICE TO THIS USER RUNNING 'VASP/VAMP'   (HEAR YOUR MASTER'S VOICE ...):  |
|                                                                             |
|      You have a (more or less) 'large supercell' and for larger cells       |
|      it might be more efficient to use real space projection opertators     |
|      So try LREAL= Auto  in the INCAR   file.                               |
|      Mind: At the moment your POTCAR file does not contain real space       |
|       projectors, and has to be modified,  BUT if you                       |
|      want to do an extremely  accurate calculation you might also keep the  |
|      reciprocal projection scheme          (i.e. LREAL=.FALSE.)             |
|                                                                             |
 ----------------------------------------------------------------------------- 

  PAW_PBE C 08Apr2002                   :
 energy of atom  1       EATOM= -147.1560
 kinetic energy error for atom=    0.0076 (will be added to EATOM!!)
  PAW_PBE Cl 06Sep2000                  :
 energy of atom  2       EATOM= -409.7259
 kinetic energy error for atom=    0.0030 (will be added to EATOM!!)
  PAW_PBE H 15Jun2001                   :
 energy of atom  3       EATOM=  -12.4884
 kinetic energy error for atom=    0.0020 (will be added to EATOM!!)
  PAW_PBE N 08Apr2002                   :
 energy of atom  4       EATOM= -264.5486
 kinetic energy error for atom=    0.0138 (will be added to EATOM!!)
  PAW_PBE O 08Apr2002                   :
 energy of atom  5       EATOM= -432.3788
 kinetic energy error for atom=    0.0224 (will be added to EATOM!!)
 
 
 POSCAR: Molecule_POSCAR_10                      
  positions in cartesian coordinates
  No initial velocities read in
 exchange correlation table for  LEXCH =        8
   RHO(1)=    0.500       N(1)  =     2000
   RHO(2)=  100.500       N(2)  =     4000

 VTST: version 3.2, (02/03/18)

 CHAIN: initializing optimizer
 
 OPT: Using VASP Dynamics algorithm
 CHAIN: Read ICHAIN            0
 
 POSCAR: Molecule_POSCAR_10                      
  positions in cartesian coordinates
  No initial velocities read in
 


--------------------------------------------------------------------------------------------------------


 ion  position               nearest neighbor table
   1  0.365  0.503  0.590-  38 1.07  37 1.11   2 1.30
   2  0.406  0.502  0.577-   1 1.30   4 1.44   3 1.54
   3  0.440  0.502  0.616-  41 1.09  40 1.10  39 1.12   2 1.54
   4  0.426  0.502  0.533-  82 1.31  79 1.40   2 1.44
   5  0.430  0.504  0.451-  83 1.31  79 1.40   6 1.43
   6  0.476  0.503  0.440-  81 1.33   7 1.40   5 1.43
   7  0.489  0.508  0.396-  42 1.07   8 1.36   6 1.40
   8  0.533  0.508  0.384-  43 1.10   7 1.36   9 1.38
   9  0.565  0.503  0.416-  44 1.08   8 1.38  10 1.39
  10  0.553  0.498  0.460-  81 1.33   9 1.39  11 1.47
  11  0.588  0.493  0.494-  80 1.27  10 1.47  36 1.74
  12  0.667  0.492  0.508-  20 1.37  13 1.38  80 1.39
  13  0.690  0.452  0.509-  17 1.37  12 1.38  14 1.48
  14  0.673  0.415  0.481-  45 1.11  13 1.48  16 1.51  15 1.51
  15  0.704  0.376  0.485-  46 1.09  47 1.10  48 1.12  14 1.51
  16  0.670  0.427  0.433-  51 1.11  50 1.12  49 1.12  14 1.51
  17  0.728  0.446  0.534-  52 1.08  13 1.37  18 1.38
  18  0.744  0.481  0.559-  53 1.09  19 1.37  17 1.38
  19  0.722  0.521  0.558-  54 1.08  18 1.37  20 1.40
  20  0.683  0.526  0.533-  12 1.37  19 1.40  21 1.47
  21  0.660  0.569  0.532-  55 1.10  20 1.47  23 1.52  22 1.54
  22  0.683  0.603  0.563-  56 1.09  58 1.11  57 1.11  21 1.54
  23  0.659  0.591  0.487-  61 1.09  59 1.10  60 1.12  21 1.52
  24  0.357  0.503  0.488-  25 1.37  32 1.38  79 1.45
  25  0.333  0.465  0.483-  24 1.37  29 1.41  26 1.48
  26  0.354  0.421  0.479-  62 1.09  25 1.48  28 1.51  27 1.56
  27  0.321  0.388  0.457-  63 1.09  65 1.10  64 1.11  26 1.56
  28  0.360  0.399  0.525-  67 1.07  66 1.13  68 1.14  26 1.51
  29  0.286  0.467  0.478-  69 1.06  30 1.37  25 1.41
  30  0.265  0.508  0.478-  70 1.10  29 1.37  31 1.37
  31  0.289  0.546  0.483-  71 1.08  30 1.37  32 1.40
  32  0.336  0.544  0.488-  24 1.38  31 1.40  33 1.46
  33  0.360  0.586  0.491-  72 1.11  32 1.46  35 1.51  34 1.56
  34  0.329  0.623  0.473-  74 1.08  75 1.10  73 1.13  33 1.56
  35  0.370  0.602  0.538-  77 1.09  76 1.09  78 1.13  33 1.51
  36  0.577  0.483  0.550-  11 1.74
  37  0.356  0.503  0.626-   1 1.11
  38  0.336  0.502  0.569-   1 1.07
  39  0.433  0.534  0.635-   3 1.12
  40  0.429  0.474  0.637-   3 1.10
  41  0.474  0.500  0.604-   3 1.09
  42  0.464  0.512  0.370-   7 1.07
  43  0.543  0.512  0.349-   8 1.10
  44  0.600  0.503  0.407-   9 1.08
  45  0.639  0.405  0.493-  14 1.11
  46  0.706  0.365  0.520-  15 1.09
  47  0.737  0.388  0.475-  15 1.10
  48  0.693  0.348  0.464-  15 1.12
  49  0.693  0.407  0.412-  16 1.12
  50  0.676  0.464  0.427-  16 1.12
  51  0.636  0.420  0.421-  16 1.11
  52  0.747  0.416  0.535-  17 1.08
  53  0.774  0.478  0.579-  18 1.09
  54  0.735  0.548  0.578-  19 1.08
  55  0.625  0.569  0.544-  21 1.10
  56  0.717  0.607  0.551-  22 1.09
  57  0.683  0.587  0.597-  22 1.11
  58  0.664  0.634  0.564-  22 1.11
  59  0.691  0.606  0.477-  23 1.10
  60  0.635  0.620  0.490-  23 1.12
  61  0.646  0.570  0.460-  23 1.09
  62  0.386  0.420  0.462-  26 1.09
  63  0.307  0.407  0.429-  27 1.09
  64  0.340  0.358  0.446-  27 1.11
  65  0.296  0.377  0.481-  27 1.10
  66  0.386  0.372  0.523-  28 1.13
  67  0.371  0.420  0.552-  28 1.07
  68  0.329  0.380  0.535-  28 1.14
  69  0.267  0.438  0.474-  29 1.06
  70  0.229  0.511  0.474-  30 1.10
  71  0.272  0.577  0.483-  31 1.08
  72  0.389  0.587  0.469-  33 1.11
  73  0.352  0.651  0.462-  34 1.13
  74  0.305  0.634  0.497-  34 1.08
  75  0.312  0.612  0.442-  34 1.10
  76  0.404  0.592  0.547-  35 1.09
  77  0.345  0.590  0.562-  35 1.09
  78  0.371  0.639  0.537-  35 1.13
  79  0.405  0.502  0.491-   5 1.40   4 1.40  24 1.45
  80  0.629  0.495  0.482-  11 1.27  12 1.39
  81  0.510  0.499  0.469-  10 1.33   6 1.33
  82  0.469  0.501  0.533-   4 1.31
  83  0.404  0.508  0.416-   5 1.31
 
  LATTYP: Found a simple cubic cell.
 ALAT       =    30.0000000000
  
  Lattice vectors:
  
 A1 = (  30.0000000000,   0.0000000000,   0.0000000000)
 A2 = (   0.0000000000,  30.0000000000,   0.0000000000)
 A3 = (   0.0000000000,   0.0000000000,  30.0000000000)


Analysis of symmetry for initial positions (statically):
=====================================================================
 Subroutine PRICEL returns:
 Original cell was already a primitive cell.
 

 Routine SETGRP: Setting up the symmetry group for a 
 simple cubic supercell.


 Subroutine GETGRP returns: Found  1 space group operations
 (whereof  1 operations were pure point group operations)
 out of a pool of 48 trial point group operations.


The static configuration has the point symmetry C_1 .


Analysis of symmetry for dynamics (positions and initial velocities):
=====================================================================
 Subroutine PRICEL returns:
 Original cell was already a primitive cell.
 

 Routine SETGRP: Setting up the symmetry group for a 
 simple cubic supercell.


 Subroutine GETGRP returns: Found  1 space group operations
 (whereof  1 operations were pure point group operations)
 out of a pool of 48 trial point group operations.


The dynamic configuration has the point symmetry C_1 .
 
 
 KPOINTS: Gamma-point only                        

Automatic generation of k-mesh.
Space group operators:
 irot       det(A)        alpha          n_x          n_y          n_z        tau_x        tau_y        tau_z
    1     1.000000     0.000000     1.000000     0.000000     0.000000     0.000000     0.000000     0.000000
 
 Subroutine IBZKPT returns following result:
 ===========================================
 
 Found      1 irreducible k-points:
 
 Following reciprocal coordinates:
            Coordinates               Weight
  0.000000  0.000000  0.000000      1.000000
 
 Following cartesian coordinates:
            Coordinates               Weight
  0.000000  0.000000  0.000000      1.000000
 
 
 Subroutine IBZKPT_HF returns following result:
 ==============================================
 
 Found      1 k-points in 1st BZ
 the following      1 k-points will be used (e.g. in the exchange kernel)
 Following reciprocal coordinates:   # in IRBZ
  0.000000  0.000000  0.000000    1.00000000   1 t-inv F


--------------------------------------------------------------------------------------------------------




 Dimension of arrays:
   k-points           NKPTS =      1   k-points in BZ     NKDIM =      1   number of bands    NBANDS=    152
   number of dos      NEDOS =    301   number of ions     NIONS =     83
   non local maximal  LDIM  =      4   non local SUM 2l+1 LMDIM =      8
   total plane-waves  NPLWV = ******
   max r-space proj   IRMAX =      1   max aug-charges    IRDMAX=   5247
   dimension x,y,z NGX =   168 NGY =  168 NGZ =  168
   dimension x,y,z NGXF=   336 NGYF=  336 NGZF=  336
   support grid    NGXF=   336 NGYF=  336 NGZF=  336
   ions per type =              35   1  42   3   2
 NGX,Y,Z   is equivalent  to a cutoff of   9.31,  9.31,  9.31 a.u.
 NGXF,Y,Z  is equivalent  to a cutoff of  18.62, 18.62, 18.62 a.u.


 I would recommend the setting:
   dimension x,y,z NGX =   164 NGY =  164 NGZ =  164
 SYSTEM =  Step2_PBE0_Final_Calc                   
 POSCAR =  Molecule_POSCAR_10                      

 Startparameter for this run:
   NWRITE =      2    write-flag & timer
   PREC   = normal    normal or accurate (medium, high low for compatibility)
   ISTART =      1    job   : 0-new  1-cont  2-samecut
   ICHARG =      0    charge: 1-file 2-atom 10-const
   ISPIN  =      1    spin polarized calculation?
   LNONCOLLINEAR =      F non collinear calculations
   LSORBIT =      F    spin-orbit coupling
   INIWAV =      1    electr: 0-lowe 1-rand  2-diag
   LASPH  =      T    aspherical Exc in radial PAW
   METAGGA=      F    non-selfconsistent MetaGGA calc.

 Electronic Relaxation 1
   ENCUT  =  500.0 eV  36.75 Ry    6.06 a.u.  54.70 54.70 54.70*2*pi/ulx,y,z
   ENINI  =  500.0     initial cutoff
   ENAUG  =  644.9 eV  augmentation charge cutoff
   NELM   =    100;   NELMIN=  2; NELMDL=  0     # of ELM steps 
   EDIFF  = 0.1E-05   stopping-criterion for ELM
   LREAL  =      F    real-space projection
   NLSPLINE    = F    spline interpolate recip. space projectors
   LCOMPAT=      F    compatible to vasp.4.4
   GGA_COMPAT  = T    GGA compatible to vasp.4.4-vasp.4.6
   LMAXPAW     = -100 max onsite density
   LMAXMIX     =    2 max onsite mixed and CHGCAR
   VOSKOWN=      0    Vosko Wilk Nusair interpolation
   ROPT   =    0.00000   0.00000   0.00000   0.00000
   ROPT   =    0.00000
 Ionic relaxation
   EDIFFG = 0.1E-04   stopping-criterion for IOM
   NSW    =      0    number of steps for IOM
   NBLOCK =      1;   KBLOCK =      1    inner block; outer block 
   IBRION =     -1    ionic relax: 0-MD 1-quasi-New 2-CG
   NFREE  =      0    steps in history (QN), initial steepest desc. (CG)
   ISIF   =      0    stress and relaxation
   IWAVPR =     10    prediction:  0-non 1-charg 2-wave 3-comb
   ISYM   =      3    0-nonsym 1-usesym 2-fastsym
   LCORR  =      T    Harris-Foulkes like correction to forces

   POTIM  = 0.5000    time-step for ionic-motion
   TEIN   =    0.0    initial temperature
   TEBEG  =    0.0;   TEEND  =   0.0 temperature during run
   SMASS  =  -3.00    Nose mass-parameter (am)
   estimated Nose-frequenzy (Omega)   =  0.10E-29 period in steps =****** mass=  -0.206E-25a.u.
   SCALEE = 1.0000    scale energy and forces
   NPACO  =    256;   APACO  = 16.0  distance and # of slots for P.C.
   PSTRESS=    0.0 pullay stress

  Mass of Ions in am
   POMASS =  12.01 35.45  1.00 14.00 16.00
  Ionic Valenz
   ZVAL   =   4.00  7.00  1.00  5.00  6.00
  Atomic Wigner-Seitz radii
   RWIGS  =  -1.00 -1.00 -1.00 -1.00 -1.00
  virtual crystal weights 
   VCA    =   1.00  1.00  1.00  1.00  1.00
   NELECT =     216.0000    total number of electrons
   NUPDOWN=      -1.0000    fix difference up-down

 DOS related values:
   EMIN   =  10.00;   EMAX   =-10.00  energy-range for DOS
   EFERMI =   0.00
   ISMEAR =     0;   SIGMA  =   0.05  broadening in eV -4-tet -1-fermi 0-gaus

 Electronic relaxation 2 (details)
   IALGO  =     58    algorithm
   LDIAG  =      T    sub-space diagonalisation (order eigenvalues)
   LSUBROT=      F    optimize rotation matrix (better conditioning)
   TURBO    =      0    0=normal 1=particle mesh
   IRESTART =      0    0=no restart 2=restart with 2 vectors
   NREBOOT  =      0    no. of reboots
   NMIN     =      0    reboot dimension
   EREF     =   0.00    reference energy to select bands
   IMIX   =      4    mixing-type and parameters
     AMIX     =   0.40;   BMIX     =  1.00
     AMIX_MAG =   1.60;   BMIX_MAG =  1.00
     AMIN     =   0.10
     WC   =   100.;   INIMIX=   1;  MIXPRE=   1;  MAXMIX= -45

 Intra band minimization:
   WEIMIN = 0.0000     energy-eigenvalue tresh-hold
   EBREAK =  0.16E-08  absolut break condition
   DEPER  =   0.30     relativ break condition  

   TIME   =   0.40     timestep for ELM

  volume/ion in A,a.u.               =     325.30      2195.24
  Fermi-wavevector in a.u.,A,eV,Ry     =   0.327420  0.618734  1.458594  0.107204
  Thomas-Fermi vector in A             =   1.220131
 
 Write flags
   LWAVE  =      F    write WAVECAR
   LCHARG =      F    write CHGCAR
   LVTOT  =      F    write LOCPOT, total local potential
   LVHAR  =      F    write LOCPOT, Hartree potential only
   LELF   =      F    write electronic localiz. function (ELF)
   LORBIT =      0    0 simple, 1 ext, 2 COOP (PROOUT)


 Dipole corrections
   LMONO  =      F    monopole corrections only (constant potential shift)
   LDIPOL =      F    correct potential (dipole corrections)
   IDIPOL =      0    1-x, 2-y, 3-z, 4-all directions 
   EPSILON=  1.0000000 bulk dielectric constant

 Exchange correlation treatment:
   GGA     =    PE    GGA type
   LEXCH   =     8    internal setting for exchange type
   VOSKOWN=      0    Vosko Wilk Nusair interpolation
   EXXOEP  =     0    0=HF, 1=EXX-LHF (local Hartree Fock) 2=EXX OEP
   LHFCALC =     T    Hartree Fock is set to
   LSYMGRAD=     F    symmetrize gradient (conserves proper symmetry)
   PRECFOCK=fast      Normal, Fast or Accurate (Low or Medium for compatibility)
   LRHFCALC=     F    long range Hartree Fock
   LRSCOR  =     F    long range correlation only (use DFT for short range part)
   LTHOMAS =     F    Thomas Fermi screening in HF
   LMODELHF=     F    short range full HF, long range fraction AEXX
   ENCUT4O =  -1.0   cutoff for four orbital integrals eV
   LMAXFOCK=     4    L truncation for augmentation on plane wave grid
   LMAXFOCKAE=  -1    L truncation for all-electron charge restoration on plane wave grid
   NMAXFOCKAE=   1    number of basis functions for all-electron charge restoration
   LFOCKAEDFT=     F  apply the AE augmentation even for DFT
   NKREDX  =     1    reduce k-point grid by
   NKREDY  =     1    reduce k-point grid by
   NKREDZ  =     1    reduce k-point grid by
   SHIFTRED=     F    shift reduced grid of Gamma
   HFKIDENT=     F    idential grid for each k-point
   ODDONLY =     F    use only odd q-grid points
   EVENONLY=     F    use only even q-grid points
   HFALPHA =   -1.0000 decay constant for conv. correction
   MCALPHA =    0.0000 extent of test-charge in conv. correction in multipole expansion
   AEXX    =    0.2500 exact exchange contribution
   HFSCREEN=    0.0000 screening length (either q_TF or 0.3 A-1)
   HFSCREENC=   0.0000 screening length for correlation (either q_TF or 0.3 A-1)
   HFRCUT  =    0.0000 spherical cutoff for potential kernel
   ALDAX   =    0.7500 LDA exchange part
   AGGAX   =    0.7500 GGA exchange part
   ALDAC   =    1.0000 LDA correlation
   AGGAC   =    1.0000 GGA correlation
   NBANDSGWLOW=     1    first orbital included in HF term
   ENCUTFOCK=  -1.0 apply spherical cutoff to Coloumb kernel
 Linear response parameters
   LEPSILON=     F    determine dielectric tensor
   LRPA    =     F    only Hartree local field effects (RPA)
   LNABLA  =     F    use nabla operator in PAW spheres
   LVEL    =     F    velocity operator in full k-point grid
   LINTERFAST=   F  fast interpolation
   KINTER  =     0    interpolate to denser k-point grid
   CSHIFT  =0.1000    complex shift for real part using Kramers Kronig
   OMEGAMAX=  -1.0    maximum frequency
   DEG_THRESHOLD= 0.2000000E-02 threshold for treating states as degnerate
   RTIME   =    0.100 relaxation time in fs

 Orbital magnetization related:
   ORBITALMAG=     F  switch on orbital magnetization
   LCHIMAG   =     F  perturbation theory with respect to B field
   DQ        =  0.001000  dq finite difference perturbation B field



--------------------------------------------------------------------------------------------------------


 Static calculation
 charge density and potential will be updated during run
 non-spin polarized calculation
 Conjugate gradient for all bands (Freysoldt, et al. PRB 79, 241103 (2009))
 preconditioned conjugated gradient                                        
 perform sub-space diagonalisation
    before iterative eigenvector-optimisation
 modified Broyden-mixing scheme, WC =      100.0
 initial mixing is a Kerker type mixing with AMIX =  0.4000 and BMIX =      1.0000
 Hartree-type preconditioning will be used
 using additional bands           44
 reciprocal scheme for non local part
 use partial core corrections
 no Harris-corrections to forces 
 use gradient corrections 
 use of overlap-Matrix (Vanderbilt PP)
 Gauss-broadening in eV      SIGMA  =   0.05


--------------------------------------------------------------------------------------------------------


  energy-cutoff  :      500.00
  volume of cell :    27000.00
      direct lattice vectors                 reciprocal lattice vectors
    30.000000000  0.000000000  0.000000000     0.033333333  0.000000000  0.000000000
     0.000000000 30.000000000  0.000000000     0.000000000  0.033333333  0.000000000
     0.000000000  0.000000000 30.000000000     0.000000000  0.000000000  0.033333333

  length of vectors
    30.000000000 30.000000000 30.000000000     0.033333333  0.033333333  0.033333333


 
 old parameters found on file WAVECAR:
  energy-cutoff  :      500.00
  volume of cell :    27000.00
      direct lattice vectors                 reciprocal lattice vectors
    30.000000000  0.000000000  0.000000000     0.033333333  0.000000000  0.000000000
     0.000000000 30.000000000  0.000000000     0.000000000  0.033333333  0.000000000
     0.000000000  0.000000000 30.000000000     0.000000000  0.000000000  0.033333333

  length of vectors

 
 k-points in units of 2pi/SCALE and weight: Gamma-point only                        
   0.00000000  0.00000000  0.00000000       1.000
 
 k-points in reciprocal lattice and weights: Gamma-point only                        
   0.00000000  0.00000000  0.00000000       1.000
 
 position of ions in fractional coordinates (direct lattice) 
   0.36506143  0.50250747  0.59005943
   0.40633240  0.50189553  0.57708087
   0.43950517  0.50187660  0.61612103
   0.42576303  0.50165443  0.53315370
   0.42951580  0.50415090  0.45126480
   0.47603327  0.50298907  0.44038827
   0.48899453  0.50806677  0.39571790
   0.53257153  0.50830887  0.38361683
   0.56507053  0.50348540  0.41559170
   0.55345267  0.49831613  0.46025033
   0.58836890  0.49310853  0.49430827
   0.66704337  0.49158557  0.50768167
   0.69038550  0.45194530  0.50890787
   0.67292827  0.41487390  0.48141500
   0.70449960  0.37571207  0.48533310
   0.66997647  0.42732480  0.43285143
   0.72815540  0.44604613  0.53371727
   0.74398990  0.48102620  0.55878230
   0.72163153  0.52087653  0.55832547
   0.68286873  0.52647470  0.53269020
   0.65953680  0.56942583  0.53235367
   0.68333147  0.60259397  0.56324873
   0.65888937  0.59127100  0.48672960
   0.35705050  0.50313973  0.48783200
   0.33263063  0.46492453  0.48269573
   0.35433037  0.42062403  0.47949587
   0.32085607  0.38798920  0.45655050
   0.36043087  0.39936760  0.52475313
   0.28585137  0.46739640  0.47774553
   0.26484123  0.50788710  0.47796787
   0.28943520  0.54616217  0.48301520
   0.33564687  0.54369153  0.48790673
   0.35976517  0.58565977  0.49132263
   0.32910533  0.62333230  0.47283293
   0.37001603  0.60173053  0.53808523
   0.57723923  0.48313023  0.55034987
   0.35645837  0.50296390  0.62601417
   0.33635113  0.50232413  0.56898673
   0.43280893  0.53359063  0.63472443
   0.42895643  0.47396700  0.63748477
   0.47361847  0.50008773  0.60377393
   0.46439360  0.51185953  0.37033277
   0.54289353  0.51227063  0.34860440
   0.60026457  0.50343437  0.40749023
   0.63898013  0.40516593  0.49271013
   0.70552693  0.36483943  0.52008670
   0.73747043  0.38754050  0.47497417
   0.69290170  0.34770860  0.46370453
   0.69328323  0.40672443  0.41217363
   0.67580500  0.46370250  0.42690060
   0.63593420  0.41999247  0.42081460
   0.74705303  0.41554727  0.53533723
   0.77383197  0.47807220  0.57906183
   0.73486923  0.54775023  0.57830093
   0.62490540  0.56882193  0.54438070
   0.71697917  0.60679187  0.55056957
   0.68329313  0.58695087  0.59679523
   0.66351007  0.63382927  0.56371340
   0.69098520  0.60587510  0.47695823
   0.63513693  0.61987670  0.48965890
   0.64637377  0.56974557  0.46023557
   0.38612530  0.42025247  0.46195540
   0.30659267  0.40698267  0.42887573
   0.34000507  0.35813287  0.44610683
   0.29614793  0.37682660  0.48140837
   0.38579257  0.37162707  0.52276787
   0.37072047  0.42033297  0.55165330
   0.32911673  0.38039577  0.53499453
   0.26703493  0.43764340  0.47395450
   0.22862233  0.51061873  0.47422970
   0.27150350  0.57721737  0.48306683
   0.38927877  0.58670170  0.46908867
   0.35174587  0.65116057  0.46177640
   0.30461080  0.63413983  0.49698223
   0.31191060  0.61208460  0.44227180
   0.40400063  0.59222853  0.54664897
   0.34513767  0.58962857  0.56157163
   0.37086687  0.63930713  0.53724393
   0.40517633  0.50246010  0.49113450
   0.62890447  0.49545880  0.48192617
   0.51006663  0.49854143  0.46862840
   0.46938720  0.50064790  0.53346443
   0.40356347  0.50762727  0.41631970
 
 position of ions in cartesian coordinates  (Angst):
  10.95184300 15.07522400 17.70178300
  12.18997200 15.05686600 17.31242600
  13.18515500 15.05629800 18.48363100
  12.77289100 15.04963300 15.99461100
  12.88547400 15.12452700 13.53794400
  14.28099800 15.08967200 13.21164800
  14.66983600 15.24200300 11.87153700
  15.97714600 15.24926600 11.50850500
  16.95211600 15.10456200 12.46775100
  16.60358000 14.94948400 13.80751000
  17.65106700 14.79325600 14.82924800
  20.01130100 14.74756700 15.23045000
  20.71156500 13.55835900 15.26723600
  20.18784800 12.44621700 14.44245000
  21.13498800 11.27136200 14.55999300
  20.09929400 12.81974400 12.98554300
  21.84466200 13.38138400 16.01151800
  22.31969700 14.43078600 16.76346900
  21.64894600 15.62629600 16.74976400
  20.48606200 15.79424100 15.98070600
  19.78610400 17.08277500 15.97061000
  20.49994400 18.07781900 16.89746200
  19.76668100 17.73813000 14.60188800
  10.71151500 15.09419200 14.63496000
   9.97891900 13.94773600 14.48087200
  10.62991100 12.61872100 14.38487600
   9.62568200 11.63967600 13.69651500
  10.81292600 11.98102800 15.74259400
   8.57554100 14.02189200 14.33236600
   7.94523700 15.23661300 14.33903600
   8.68305600 16.38486500 14.49045600
  10.06940600 16.31074600 14.63720200
  10.79295500 17.56979300 14.73967900
   9.87316000 18.69996900 14.18498800
  11.10048100 18.05191600 16.14255700
  17.31717700 14.49390700 16.51049600
  10.69375100 15.08891700 18.78042500
  10.09053400 15.06972400 17.06960200
  12.98426800 16.00771900 19.04173300
  12.86869300 14.21901000 19.12454300
  14.20855400 15.00263200 18.11321800
  13.93180800 15.35578600 11.10998300
  16.28680600 15.36811900 10.45813200
  18.00793700 15.10303100 12.22470700
  19.16940400 12.15497800 14.78130400
  21.16580800 10.94518300 15.60260100
  22.12411300 11.62621500 14.24922500
  20.78705100 10.43125800 13.91113600
  20.79849700 12.20173300 12.36520900
  20.27415000 13.91107500 12.80701800
  19.07802600 12.59977400 12.62443800
  22.41159100 12.46641800 16.06011700
  23.21495900 14.34216600 17.37185500
  22.04607700 16.43250700 17.34902800
  18.74716200 17.06465800 16.33142100
  21.50937500 18.20375600 16.51708700
  20.49879400 17.60852600 17.90385700
  19.90530200 19.01487800 16.91140200
  20.72955600 18.17625300 14.30874700
  19.05410800 18.59630100 14.68976700
  19.39121300 17.09236700 13.80706700
  11.58375900 12.60757400 13.85866200
   9.19778000 12.20948000 12.86627200
  10.20015200 10.74398600 13.38320500
   8.88443800 11.30479800 14.44225100
  11.57377700 11.14881200 15.68303600
  11.12161400 12.60998900 16.54959900
   9.87350200 11.41187300 16.04983600
   8.01104800 13.12930200 14.21863500
   6.85867000 15.31856200 14.22689100
   8.14510500 17.31652100 14.49200500
  11.67836300 17.60105100 14.07266000
  10.55237600 19.53481700 13.85329200
   9.13832400 19.02419500 14.90946700
   9.35731800 18.36253800 13.26815400
  12.12001900 17.76685600 16.39946900
  10.35413000 17.68885700 16.84714900
  11.12600600 19.17921400 16.11731800
  12.15529000 15.07380300 14.73403500
  18.86713400 14.86376400 14.45778500
  15.30199900 14.95624300 14.05885200
  14.08161600 15.01943700 16.00393300
  12.10690400 15.22881800 12.48959100
 


--------------------------------------------------------------------------------------------------------


 use seriel FFT for wavefunctions x direction half grid
 k-point  1 :   0.0000 0.0000 0.0000  plane waves:  342683

 maximum and minimum number of plane-waves per node :    342683   342683

 maximum number of plane-waves:    342683
 maximum index in each direction: 
   IXMAX=   54   IYMAX=   54   IZMAX=   54
   IXMIN=    0   IYMIN=  -54   IZMIN=  -54

 WARNING: aliasing errors must be expected set NGX to 218 to avoid them
 WARNING: aliasing errors must be expected set NGY to 218 to avoid them
 WARNING: aliasing errors must be expected set NGZ to 218 to avoid them
 aliasing errors are usually negligible using standard VASP settings
 and one can safely disregard these warnings

 serial   3D FFT for wavefunctions
 parallel 3D FFT for charge:
    minimum data exchange during FFTs selected (reduces bandwidth)


 FFT grid for exact exchange (Hartree Fock) 
  NGX =112; NGY =112; NGZ =112

 use seriel FFT for wavefunctions x direction half grid
 
 Radii for the augmentation spheres in the non-local exchange
 for species   1 augmentation radius   0.944 (default was   0.699)
       energy cutoff for augmentation   2000.0
 for species   2 augmentation radius   1.270 (default was   0.941)
       energy cutoff for augmentation   2000.0
 for species   3 augmentation radius   0.702 (default was   0.520)
       energy cutoff for augmentation   2000.0
 for species   4 augmentation radius   0.957 (default was   0.709)
       energy cutoff for augmentation   2000.0
 for species   5 augmentation radius   0.974 (default was   0.722)
       energy cutoff for augmentation   2000.0
 Maximum index for augmentation-charges in exchange          443
  SETUP_FOCK is finished

 total amount of memory used by VASP on root node  2512553. kBytes
========================================================================

   base      :      30000. kBytes
   nonl-proj :     564743. kBytes
   fftplans  :     338850. kBytes
   grid      :     952390. kBytes
   one-center:        127. kBytes
   HF        :         23. kBytes
   nonlr-proj:        872. kBytes
   wavefun   :     625548. kBytes
 
     INWAV:  cpu time    1.2859: real time    4.7122
 Broyden mixing: mesh for mixing (old mesh)
   NGX =109   NGY =109   NGZ =109
  (NGX  =336   NGY  =336   NGZ  =336)
  gives a total of ****** points

 charge density for first step will be calculated from the start-wavefunctions


--------------------------------------------------------------------------------------------------------


 Maximum index for augmentation-charges         1213 (set IRDMAX)


--------------------------------------------------------------------------------------------------------


 initial charge from wavefunction
 FEWALD executed in parallel
    FEWALD:  cpu time    0.0050: real time    0.0050


----------------------------------------- Iteration    1(   1)  ---------------------------------------


    POTLOK:  cpu time    3.5968: real time    3.6045
    SETDIJ:  cpu time    0.5549: real time    0.5559
    TRIAL :  cpu time  251.2224: real time  251.8227
    CORREC:  cpu time  218.7469: real time  219.2449
    CHARGE:  cpu time    2.9009: real time    2.9072
    --------------------------------------------
      LOOP:  cpu time  477.1082: real time  478.2228

 eigenvalue-minimisations  :     0
 total energy-change (2. order) :-0.6152227E+03  (-0.5310235E+00)
 number of electron     215.9999956 magnetization 
 augmentation part        5.1733530 magnetization 

 Free energy of the ion-electron system (eV)
  ---------------------------------------------------
  alpha Z        PSCENC =         7.69791958
  Ewald energy   TEWEN  =     38093.60359460
  -Hartree energ DENC   =    -44402.74301154
  -exchange      EXHF   =       576.12906393
  -V(xc)+E(xc)   XCENC  =       567.97587173
  PAW double counting   =     18685.11895221   -18707.43807230
  entropy T*S    EENTRO =        -0.00000000
  eigenvalues    EBANDS =     -3054.18237220
  atomic energy  EATOM  =      7618.61538196
  ---------------------------------------------------
  free energy    TOTEN  =      -615.22267204 eV

  energy without entropy =     -615.22267204  energy(sigma->0) =     -615.22267204
  exchange ACFDT corr.  =         0.00000000  see jH, gK, PRB 81, 115126


--------------------------------------------------------------------------------------------------------




----------------------------------------- Iteration    1(   2)  ---------------------------------------


    POTLOK:  cpu time    3.5769: real time    3.5843
    SETDIJ:  cpu time    0.5561: real time    0.5571
    TRIAL :  cpu time  251.2202: real time  251.8146
    CORREC:  cpu time  218.7433: real time  219.2463
    CHARGE:  cpu time    2.9001: real time    2.9065
    --------------------------------------------
      LOOP:  cpu time  476.9975: real time  478.1107

 eigenvalue-minimisations  :     0
 total energy-change (2. order) :-0.5352264E+00  (-0.9412915E-01)
 number of electron     215.9999956 magnetization 
 augmentation part        5.1589482 magnetization 

 Free energy of the ion-electron system (eV)
  ---------------------------------------------------
  alpha Z        PSCENC =         7.69791958
  Ewald energy   TEWEN  =     38093.60359460
  -Hartree energ DENC   =    -44407.25809181
  -exchange      EXHF   =       576.72319919
  -V(xc)+E(xc)   XCENC  =       567.83477173
  PAW double counting   =     19612.15980579   -19634.01902706
  entropy T*S    EENTRO =        -0.00000000
  eigenvalues    EBANDS =     -3051.11545240
  atomic energy  EATOM  =      7618.61538196
  ---------------------------------------------------
  free energy    TOTEN  =      -615.75789844 eV

  energy without entropy =     -615.75789844  energy(sigma->0) =     -615.75789844
  exchange ACFDT corr.  =         0.00000000  see jH, gK, PRB 81, 115126


--------------------------------------------------------------------------------------------------------




----------------------------------------- Iteration    1(   3)  ---------------------------------------


    POTLOK:  cpu time    3.6501: real time    3.6579
    SETDIJ:  cpu time    0.5589: real time    0.5601
    TRIAL :  cpu time  250.8856: real time  251.4770
    CORREC:  cpu time  220.1001: real time  220.6128
    CHARGE:  cpu time    2.9135: real time    2.9197
    --------------------------------------------
      LOOP:  cpu time  478.1094: real time  479.2299

 eigenvalue-minimisations  :     0
 total energy-change (2. order) :-0.9418900E-01  (-0.3379012E-01)
 number of electron     215.9999956 magnetization 
 augmentation part        5.1591593 magnetization 

 Free energy of the ion-electron system (eV)
  ---------------------------------------------------
  alpha Z        PSCENC =         7.69791958
  Ewald energy   TEWEN  =     38093.60359460
  -Hartree energ DENC   =    -44400.78231855
  -exchange      EXHF   =       576.71790898
  -V(xc)+E(xc)   XCENC  =       567.65287707
  PAW double counting   =     19921.05917402   -19942.81555402
  entropy T*S    EENTRO =        -0.00000000
  eigenvalues    EBANDS =     -3057.60107108
  atomic energy  EATOM  =      7618.61538196
  ---------------------------------------------------
  free energy    TOTEN  =      -615.85208744 eV

  energy without entropy =     -615.85208744  energy(sigma->0) =     -615.85208744
  exchange ACFDT corr.  =        -0.00000000  see jH, gK, PRB 81, 115126


--------------------------------------------------------------------------------------------------------




----------------------------------------- Iteration    1(   4)  ---------------------------------------


    POTLOK:  cpu time    3.5983: real time    3.6060
    SETDIJ:  cpu time    0.5552: real time    0.5563
    TRIAL :  cpu time  249.7010: real time  250.2879
    CORREC:  cpu time  220.2069: real time  220.7198
    CHARGE:  cpu time    2.8948: real time    2.9022
    --------------------------------------------
      LOOP:  cpu time  476.9573: real time  478.0745

 eigenvalue-minimisations  :     0
 total energy-change (2. order) :-0.3384541E-01  (-0.1260571E-01)
 number of electron     215.9999956 magnetization 
 augmentation part        5.1621784 magnetization 

 Free energy of the ion-electron system (eV)
  ---------------------------------------------------
  alpha Z        PSCENC =         7.69791958
  Ewald energy   TEWEN  =     38093.60359460
  -Hartree energ DENC   =    -44406.78966655
  -exchange      EXHF   =       577.06836711
  -V(xc)+E(xc)   XCENC  =       567.88519093
  PAW double counting   =     20074.54635425   -20096.26933213
  entropy T*S    EENTRO =        -0.00000000
  eigenvalues    EBANDS =     -3052.24374259
  atomic energy  EATOM  =      7618.61538196
  ---------------------------------------------------
  free energy    TOTEN  =      -615.88593285 eV

  energy without entropy =     -615.88593285  energy(sigma->0) =     -615.88593285
  exchange ACFDT corr.  =        -0.00000000  see jH, gK, PRB 81, 115126


--------------------------------------------------------------------------------------------------------




----------------------------------------- Iteration    1(   5)  ---------------------------------------


    POTLOK:  cpu time    3.6177: real time    3.6258
    SETDIJ:  cpu time    0.5547: real time    0.5558
    TRIAL :  cpu time  249.6763: real time  250.2697
    CORREC:  cpu time  219.8867: real time  220.4000
    CHARGE:  cpu time    2.9845: real time    2.9916
    --------------------------------------------
      LOOP:  cpu time  476.7210: real time  477.8452

 eigenvalue-minimisations  :     0
 total energy-change (2. order) :-0.1262681E-01  (-0.6287380E-02)
 number of electron     215.9999956 magnetization 
 augmentation part        5.1633198 magnetization 

 Free energy of the ion-electron system (eV)
  ---------------------------------------------------
  alpha Z        PSCENC =         7.69791958
  Ewald energy   TEWEN  =     38093.60359460
  -Hartree energ DENC   =    -44409.18013207
  -exchange      EXHF   =       577.21534239
  -V(xc)+E(xc)   XCENC  =       567.98296996
  PAW double counting   =     20105.68341319   -20127.41377209
  entropy T*S    EENTRO =        -0.00000000
  eigenvalues    EBANDS =     -3050.10327717
  atomic energy  EATOM  =      7618.61538196
  ---------------------------------------------------
  free energy    TOTEN  =      -615.89855966 eV

  energy without entropy =     -615.89855966  energy(sigma->0) =     -615.89855966
  exchange ACFDT corr.  =        -0.00000000  see jH, gK, PRB 81, 115126


--------------------------------------------------------------------------------------------------------




----------------------------------------- Iteration    1(   6)  ---------------------------------------


    POTLOK:  cpu time    3.5873: real time    3.5951
    SETDIJ:  cpu time    0.5577: real time    0.5589
    TRIAL :  cpu time  252.6823: real time  253.2823
    CORREC:  cpu time  218.1982: real time  218.6989
    CHARGE:  cpu time    2.8888: real time    2.8951
    --------------------------------------------
      LOOP:  cpu time  477.9151: real time  479.0324

 eigenvalue-minimisations  :     0
 total energy-change (2. order) :-0.6296744E-02  (-0.2791188E-02)
 number of electron     215.9999956 magnetization 
 augmentation part        5.1651878 magnetization 

 Free energy of the ion-electron system (eV)
  ---------------------------------------------------
  alpha Z        PSCENC =         7.69791958
  Ewald energy   TEWEN  =     38093.60359460
  -Hartree energ DENC   =    -44407.63508592
  -exchange      EXHF   =       577.19632795
  -V(xc)+E(xc)   XCENC  =       567.94968015
  PAW double counting   =     20079.53399488   -20101.27424667
  entropy T*S    EENTRO =        -0.00000000
  eigenvalues    EBANDS =     -3051.59242293
  atomic energy  EATOM  =      7618.61538196
  ---------------------------------------------------
  free energy    TOTEN  =      -615.90485641 eV

  energy without entropy =     -615.90485641  energy(sigma->0) =     -615.90485641
  exchange ACFDT corr.  =        -0.00000000  see jH, gK, PRB 81, 115126


--------------------------------------------------------------------------------------------------------




----------------------------------------- Iteration    1(   7)  ---------------------------------------


    POTLOK:  cpu time    3.5211: real time    3.5300
    SETDIJ:  cpu time    0.5546: real time    0.5556
    TRIAL :  cpu time  250.9701: real time  251.5714
    CORREC:  cpu time  218.7844: real time  219.2889
    CHARGE:  cpu time    2.8772: real time    2.8833
    --------------------------------------------
      LOOP:  cpu time  476.7085: real time  477.8307

 eigenvalue-minimisations  :     0
 total energy-change (2. order) :-0.2794686E-02  (-0.1050931E-02)
 number of electron     215.9999956 magnetization 
 augmentation part        5.1662915 magnetization 

 Free energy of the ion-electron system (eV)
  ---------------------------------------------------
  alpha Z        PSCENC =         7.69791958
  Ewald energy   TEWEN  =     38093.60359460
  -Hartree energ DENC   =    -44407.86286009
  -exchange      EXHF   =       577.20787892
  -V(xc)+E(xc)   XCENC  =       567.95738687
  PAW double counting   =     20041.58253033   -20063.33407342
  entropy T*S    EENTRO =        -0.00000000
  eigenvalues    EBANDS =     -3051.37540983
  atomic energy  EATOM  =      7618.61538196
  ---------------------------------------------------
  free energy    TOTEN  =      -615.90765109 eV

  energy without entropy =     -615.90765109  energy(sigma->0) =     -615.90765109
  exchange ACFDT corr.  =         0.00000000  see jH, gK, PRB 81, 115126


--------------------------------------------------------------------------------------------------------




----------------------------------------- Iteration    1(   8)  ---------------------------------------


    POTLOK:  cpu time    3.5836: real time    3.5923
    SETDIJ:  cpu time    0.5546: real time    0.5556
    TRIAL :  cpu time  250.9598: real time  251.5668
    CORREC:  cpu time  218.7292: real time  219.2345
    CHARGE:  cpu time    2.8948: real time    2.9012
    --------------------------------------------
      LOOP:  cpu time  476.7228: real time  477.8525

 eigenvalue-minimisations  :     0
 total energy-change (2. order) :-0.1051464E-02  (-0.3932477E-03)
 number of electron     215.9999956 magnetization 
 augmentation part        5.1664464 magnetization 

 Free energy of the ion-electron system (eV)
  ---------------------------------------------------
  alpha Z        PSCENC =         7.69791958
  Ewald energy   TEWEN  =     38093.60359460
  -Hartree energ DENC   =    -44408.46090839
  -exchange      EXHF   =       577.22414125
  -V(xc)+E(xc)   XCENC  =       567.97236569
  PAW double counting   =     20019.17264174   -20040.93230870
  entropy T*S    EENTRO =        -0.00000000
  eigenvalues    EBANDS =     -3050.80153028
  atomic energy  EATOM  =      7618.61538196
  ---------------------------------------------------
  free energy    TOTEN  =      -615.90870256 eV

  energy without entropy =     -615.90870256  energy(sigma->0) =     -615.90870256
  exchange ACFDT corr.  =         0.00000000  see jH, gK, PRB 81, 115126


--------------------------------------------------------------------------------------------------------




----------------------------------------- Iteration    1(   9)  ---------------------------------------


    POTLOK:  cpu time    3.6010: real time    3.6090
    SETDIJ:  cpu time    0.5549: real time    0.5561
    TRIAL :  cpu time  251.0652: real time  251.6655
    CORREC:  cpu time  219.9310: real time  220.4414
    CHARGE:  cpu time    2.9013: real time    2.9077
    --------------------------------------------
      LOOP:  cpu time  478.0544: real time  479.1811

 eigenvalue-minimisations  :     0
 total energy-change (2. order) :-0.3935160E-03  (-0.1535863E-03)
 number of electron     215.9999956 magnetization 
 augmentation part        5.1666072 magnetization 

 Free energy of the ion-electron system (eV)
  ---------------------------------------------------
  alpha Z        PSCENC =         7.69791958
  Ewald energy   TEWEN  =     38093.60359460
  -Hartree energ DENC   =    -44408.31854802
  -exchange      EXHF   =       577.22104639
  -V(xc)+E(xc)   XCENC  =       567.96925765
  PAW double counting   =     20010.76528800   -20032.52743465
  entropy T*S    EENTRO =        -0.00000000
  eigenvalues    EBANDS =     -3050.93560158
  atomic energy  EATOM  =      7618.61538196
  ---------------------------------------------------
  free energy    TOTEN  =      -615.90909607 eV

  energy without entropy =     -615.90909607  energy(sigma->0) =     -615.90909607
  exchange ACFDT corr.  =        -0.00000000  see jH, gK, PRB 81, 115126


--------------------------------------------------------------------------------------------------------




----------------------------------------- Iteration    1(  10)  ---------------------------------------


    POTLOK:  cpu time    3.5698: real time    3.5774
    SETDIJ:  cpu time    0.5543: real time    0.5552
    TRIAL :  cpu time  249.8938: real time  250.4911
    CORREC:  cpu time  207.7406: real time  208.2111
    CHARGE:  cpu time    2.6147: real time    2.6199
    --------------------------------------------
      LOOP:  cpu time  464.3741: real time  465.4562

 eigenvalue-minimisations  :     0
 total energy-change (2. order) :-0.1538042E-03  (-0.8143393E-04)
 number of electron     215.9999956 magnetization 
 augmentation part        5.1668465 magnetization 

 Free energy of the ion-electron system (eV)
  ---------------------------------------------------
  alpha Z        PSCENC =         7.69791958
  Ewald energy   TEWEN  =     38093.60359460
  -Hartree energ DENC   =    -44408.18829750
  -exchange      EXHF   =       577.21574747
  -V(xc)+E(xc)   XCENC  =       567.96434285
  PAW double counting   =     20011.00597055   -20032.76819577
  entropy T*S    EENTRO =        -0.00000000
  eigenvalues    EBANDS =     -3051.05571360
  atomic energy  EATOM  =      7618.61538196
  ---------------------------------------------------
  free energy    TOTEN  =      -615.90924988 eV

  energy without entropy =     -615.90924988  energy(sigma->0) =     -615.90924988
  exchange ACFDT corr.  =        -0.00000000  see jH, gK, PRB 81, 115126


--------------------------------------------------------------------------------------------------------




----------------------------------------- Iteration    1(  11)  ---------------------------------------


    POTLOK:  cpu time    3.2832: real time    3.2895
    SETDIJ:  cpu time    0.5539: real time    0.5548
    TRIAL :  cpu time  224.9375: real time  225.4350
    CORREC:  cpu time  199.1867: real time  199.6233
    CHARGE:  cpu time    2.5859: real time    2.5909
    --------------------------------------------
      LOOP:  cpu time  430.5483: real time  431.4958

 eigenvalue-minimisations  :     0
 total energy-change (2. order) :-0.8145964E-04  (-0.5872235E-04)
 number of electron     215.9999956 magnetization 
 augmentation part        5.1669370 magnetization 

 Free energy of the ion-electron system (eV)
  ---------------------------------------------------
  alpha Z        PSCENC =         7.69791958
  Ewald energy   TEWEN  =     38093.60359460
  -Hartree energ DENC   =    -44408.36892572
  -exchange      EXHF   =       577.21830589
  -V(xc)+E(xc)   XCENC  =       567.96657422
  PAW double counting   =     20015.24521727   -20037.00731955
  entropy T*S    EENTRO =        -0.00000000
  eigenvalues    EBANDS =     -3050.88007958
  atomic energy  EATOM  =      7618.61538196
  ---------------------------------------------------
  free energy    TOTEN  =      -615.90933134 eV

  energy without entropy =     -615.90933134  energy(sigma->0) =     -615.90933134
  exchange ACFDT corr.  =         0.00000000  see jH, gK, PRB 81, 115126


--------------------------------------------------------------------------------------------------------




----------------------------------------- Iteration    1(  12)  ---------------------------------------


    POTLOK:  cpu time    3.3136: real time    3.3201
    SETDIJ:  cpu time    0.5544: real time    0.5553
    TRIAL :  cpu time  227.0254: real time  227.5328
    CORREC:  cpu time  198.0307: real time  198.4596
    CHARGE:  cpu time    2.6133: real time    2.6186
    --------------------------------------------
      LOOP:  cpu time  431.5382: real time  432.4884

 eigenvalue-minimisations  :     0
 total energy-change (2. order) :-0.5845521E-04  (-0.4066808E-04)
 number of electron     215.9999956 magnetization 
 augmentation part        5.1669189 magnetization 

 Free energy of the ion-electron system (eV)
  ---------------------------------------------------
  alpha Z        PSCENC =         7.69791958
  Ewald energy   TEWEN  =     38093.60359460
  -Hartree energ DENC   =    -44408.36679894
  -exchange      EXHF   =       577.21908638
  -V(xc)+E(xc)   XCENC  =       567.96692699
  PAW double counting   =     20020.69734076   -20042.45884032
  entropy T*S    EENTRO =        -0.00000000
  eigenvalues    EBANDS =     -3050.88400079
  atomic energy  EATOM  =      7618.61538196
  ---------------------------------------------------
  free energy    TOTEN  =      -615.90938979 eV

  energy without entropy =     -615.90938979  energy(sigma->0) =     -615.90938979
  exchange ACFDT corr.  =        -0.00000000  see jH, gK, PRB 81, 115126


--------------------------------------------------------------------------------------------------------




----------------------------------------- Iteration    1(  13)  ---------------------------------------


    POTLOK:  cpu time    3.2487: real time    3.2549
    SETDIJ:  cpu time    0.5580: real time    0.5592
    TRIAL :  cpu time  225.8922: real time  226.3943
    CORREC:  cpu time  198.1866: real time  198.6163
    CHARGE:  cpu time    2.6214: real time    2.6267
    --------------------------------------------
      LOOP:  cpu time  430.5078: real time  431.4527

 eigenvalue-minimisations  :     0
 total energy-change (2. order) :-0.4036757E-04  (-0.2734406E-04)
 number of electron     215.9999956 magnetization 
 augmentation part        5.1669457 magnetization 

 Free energy of the ion-electron system (eV)
  ---------------------------------------------------
  alpha Z        PSCENC =         7.69791958
  Ewald energy   TEWEN  =     38093.60359460
  -Hartree energ DENC   =    -44408.21302377
  -exchange      EXHF   =       577.21618118
  -V(xc)+E(xc)   XCENC  =       567.96399454
  PAW double counting   =     20023.90738652   -20045.66827186
  entropy T*S    EENTRO =        -0.00000000
  eigenvalues    EBANDS =     -3051.03259290
  atomic energy  EATOM  =      7618.61538196
  ---------------------------------------------------
  free energy    TOTEN  =      -615.90943016 eV

  energy without entropy =     -615.90943016  energy(sigma->0) =     -615.90943016
  exchange ACFDT corr.  =        -0.00000000  see jH, gK, PRB 81, 115126


--------------------------------------------------------------------------------------------------------




----------------------------------------- Iteration    1(  14)  ---------------------------------------


    POTLOK:  cpu time    3.2798: real time    3.2860
    SETDIJ:  cpu time    0.5542: real time    0.5551
    TRIAL :  cpu time  226.2417: real time  226.7458
    CORREC:  cpu time  198.0981: real time  198.5251
    CHARGE:  cpu time    2.5732: real time    2.5784
    --------------------------------------------
      LOOP:  cpu time  430.7479: real time  431.6925

 eigenvalue-minimisations  :     0
 total energy-change (2. order) :-0.2695503E-04  (-0.1796752E-04)
 number of electron     215.9999956 magnetization 
 augmentation part        5.1669497 magnetization 

 Free energy of the ion-electron system (eV)
  ---------------------------------------------------
  alpha Z        PSCENC =         7.69791958
  Ewald energy   TEWEN  =     38093.60359460
  -Hartree energ DENC   =    -44408.26845995
  -exchange      EXHF   =       577.21753019
  -V(xc)+E(xc)   XCENC  =       567.96506684
  PAW double counting   =     20024.33715505   -20046.09812274
  entropy T*S    EENTRO =        -0.00000000
  eigenvalues    EBANDS =     -3050.97952263
  atomic energy  EATOM  =      7618.61538196
  ---------------------------------------------------
  free energy    TOTEN  =      -615.90945711 eV

  energy without entropy =     -615.90945711  energy(sigma->0) =     -615.90945711
  exchange ACFDT corr.  =        -0.00000000  see jH, gK, PRB 81, 115126


--------------------------------------------------------------------------------------------------------




----------------------------------------- Iteration    1(  15)  ---------------------------------------


    POTLOK:  cpu time    3.3167: real time    3.3238
    SETDIJ:  cpu time    0.5537: real time    0.5551
    TRIAL :  cpu time  226.3782: real time  226.8844
    CORREC:  cpu time  194.8338: real time  195.2613
    CHARGE:  cpu time    2.3909: real time    2.3952
    --------------------------------------------
      LOOP:  cpu time  427.4744: real time  428.4220

 eigenvalue-minimisations  :     0
 total energy-change (2. order) :-0.1766066E-04  (-0.1167400E-04)
 number of electron     215.9999956 magnetization 
 augmentation part        5.1669142 magnetization 

 Free energy of the ion-electron system (eV)
  ---------------------------------------------------
  alpha Z        PSCENC =         7.69791958
  Ewald energy   TEWEN  =     38093.60359460
  -Hartree energ DENC   =    -44408.30312730
  -exchange      EXHF   =       577.21891867
  -V(xc)+E(xc)   XCENC  =       567.96618726
  PAW double counting   =     20022.62513034   -20044.38644058
  entropy T*S    EENTRO =        -0.00000000
  eigenvalues    EBANDS =     -3050.94703930
  atomic energy  EATOM  =      7618.61538196
  ---------------------------------------------------
  free energy    TOTEN  =      -615.90947478 eV

  energy without entropy =     -615.90947478  energy(sigma->0) =     -615.90947478
  exchange ACFDT corr.  =        -0.00000000  see jH, gK, PRB 81, 115126


--------------------------------------------------------------------------------------------------------




----------------------------------------- Iteration    1(  16)  ---------------------------------------


    POTLOK:  cpu time    3.0646: real time    3.0705
    SETDIJ:  cpu time    0.5512: real time    0.5520
    TRIAL :  cpu time  204.4761: real time  204.9383
    CORREC:  cpu time  180.6868: real time  181.0599
    CHARGE:  cpu time    2.3865: real time    2.3911
    --------------------------------------------
      LOOP:  cpu time  391.1662: real time  392.0133

 eigenvalue-minimisations  :     0
 total energy-change (2. order) :-0.1149745E-04  (-0.7450878E-05)
 number of electron     215.9999956 magnetization 
 augmentation part        5.1669118 magnetization 

 Free energy of the ion-electron system (eV)
  ---------------------------------------------------
  alpha Z        PSCENC =         7.69791958
  Ewald energy   TEWEN  =     38093.60359460
  -Hartree energ DENC   =    -44408.24975686
  -exchange      EXHF   =       577.21807549
  -V(xc)+E(xc)   XCENC  =       567.96528156
  PAW double counting   =     20020.31998046   -20042.08156069
  entropy T*S    EENTRO =        -0.00000000
  eigenvalues    EBANDS =     -3050.99840235
  atomic energy  EATOM  =      7618.61538196
  ---------------------------------------------------
  free energy    TOTEN  =      -615.90948627 eV

  energy without entropy =     -615.90948627  energy(sigma->0) =     -615.90948627
  exchange ACFDT corr.  =        -0.00000000  see jH, gK, PRB 81, 115126


--------------------------------------------------------------------------------------------------------




----------------------------------------- Iteration    1(  17)  ---------------------------------------


    POTLOK:  cpu time    3.0650: real time    3.0701
    SETDIJ:  cpu time    0.5514: real time    0.5522
    TRIAL :  cpu time  204.5219: real time  204.9692
    CORREC:  cpu time  180.5117: real time  180.8910
    CHARGE:  cpu time    2.3899: real time    2.3943
    --------------------------------------------
      LOOP:  cpu time  391.0409: real time  391.8791

 eigenvalue-minimisations  :     0
 total energy-change (2. order) :-0.7294802E-05  (-0.4644443E-05)
 number of electron     215.9999956 magnetization 
 augmentation part        5.1669473 magnetization 

 Free energy of the ion-electron system (eV)
  ---------------------------------------------------
  alpha Z        PSCENC =         7.69791958
  Ewald energy   TEWEN  =     38093.60359460
  -Hartree energ DENC   =    -44408.24889706
  -exchange      EXHF   =       577.21795912
  -V(xc)+E(xc)   XCENC  =       567.96508235
  PAW double counting   =     20018.71658753   -20040.47841532
  entropy T*S    EENTRO =        -0.00000000
  eigenvalues    EBANDS =     -3050.99870631
  atomic energy  EATOM  =      7618.61538196
  ---------------------------------------------------
  free energy    TOTEN  =      -615.90949357 eV

  energy without entropy =     -615.90949357  energy(sigma->0) =     -615.90949357
  exchange ACFDT corr.  =        -0.00000000  see jH, gK, PRB 81, 115126


--------------------------------------------------------------------------------------------------------




----------------------------------------- Iteration    1(  18)  ---------------------------------------


    POTLOK:  cpu time    3.0656: real time    3.0707
    SETDIJ:  cpu time    0.5517: real time    0.5524
    TRIAL :  cpu time  204.4464: real time  204.8769
    CORREC:  cpu time  180.5609: real time  180.9315
    CHARGE:  cpu time    2.3911: real time    2.3955
    --------------------------------------------
      LOOP:  cpu time  391.0166: real time  391.8290

 eigenvalue-minimisations  :     0
 total energy-change (2. order) :-0.4468189E-05  (-0.2475355E-05)
 number of electron     215.9999956 magnetization 
 augmentation part        5.1669632 magnetization 

 Free energy of the ion-electron system (eV)
  ---------------------------------------------------
  alpha Z        PSCENC =         7.69791958
  Ewald energy   TEWEN  =     38093.60359460
  -Hartree energ DENC   =    -44408.29095018
  -exchange      EXHF   =       577.21889290
  -V(xc)+E(xc)   XCENC  =       567.96586749
  PAW double counting   =     20018.20905502   -20039.97105537
  entropy T*S    EENTRO =        -0.00000000
  eigenvalues    EBANDS =     -3050.95820403
  atomic energy  EATOM  =      7618.61538196
  ---------------------------------------------------
  free energy    TOTEN  =      -615.90949804 eV

  energy without entropy =     -615.90949804  energy(sigma->0) =     -615.90949804
  exchange ACFDT corr.  =        -0.00000000  see jH, gK, PRB 81, 115126


--------------------------------------------------------------------------------------------------------




----------------------------------------- Iteration    1(  19)  ---------------------------------------


    POTLOK:  cpu time    3.0653: real time    3.0702
    SETDIJ:  cpu time    0.5513: real time    0.5520
    TRIAL :  cpu time  204.6932: real time  205.1255
    CORREC:  cpu time  180.4762: real time  180.8486
    CHARGE:  cpu time    2.3880: real time    2.3923
    --------------------------------------------
      LOOP:  cpu time  391.1751: real time  391.9908

 eigenvalue-minimisations  :     0
 total energy-change (2. order) :-0.2337432E-05  (-0.1413258E-05)
 number of electron     215.9999956 magnetization 
 augmentation part        5.1669714 magnetization 

 Free energy of the ion-electron system (eV)
  ---------------------------------------------------
  alpha Z        PSCENC =         7.69791958
  Ewald energy   TEWEN  =     38093.60359460
  -Hartree energ DENC   =    -44408.29092886
  -exchange      EXHF   =       577.21895463
  -V(xc)+E(xc)   XCENC  =       567.96586567
  PAW double counting   =     20018.51265255   -20040.27465256
  entropy T*S    EENTRO =        -0.00000000
  eigenvalues    EBANDS =     -3050.95828792
  atomic energy  EATOM  =      7618.61538196
  ---------------------------------------------------
  free energy    TOTEN  =      -615.90950037 eV

  energy without entropy =     -615.90950037  energy(sigma->0) =     -615.90950037
  exchange ACFDT corr.  =        -0.00000000  see jH, gK, PRB 81, 115126


--------------------------------------------------------------------------------------------------------




----------------------------------------- Iteration    1(  20)  ---------------------------------------


    POTLOK:  cpu time    3.0653: real time    3.0703
    SETDIJ:  cpu time    0.5516: real time    0.5523
    TRIAL :  cpu time  204.8319: real time  205.2594
    CORREC:  cpu time  180.3127: real time  180.6818
    CHARGE:  cpu time    2.3892: real time    2.3936
    --------------------------------------------
      LOOP:  cpu time  391.1515: real time  391.9593

 eigenvalue-minimisations  :     0
 total energy-change (2. order) :-0.1258295E-05  (-0.8552233E-06)
 number of electron     215.9999956 magnetization 
 augmentation part        5.1669951 magnetization 

 Free energy of the ion-electron system (eV)
  ---------------------------------------------------
  alpha Z        PSCENC =         7.69791958
  Ewald energy   TEWEN  =     38093.60359460
  -Hartree energ DENC   =    -44408.28233294
  -exchange      EXHF   =       577.21880840
  -V(xc)+E(xc)   XCENC  =       567.96568427
  PAW double counting   =     20019.16369864   -20040.92561912
  entropy T*S    EENTRO =        -0.00000000
  eigenvalues    EBANDS =     -3050.96663701
  atomic energy  EATOM  =      7618.61538196
  ---------------------------------------------------
  free energy    TOTEN  =      -615.90950163 eV

  energy without entropy =     -615.90950163  energy(sigma->0) =     -615.90950163
  exchange ACFDT corr.  =         0.00000000  see jH, gK, PRB 81, 115126


--------------------------------------------------------------------------------------------------------




----------------------------------------- Iteration    1(  21)  ---------------------------------------


    POTLOK:  cpu time    3.0665: real time    3.0715
    SETDIJ:  cpu time    0.5511: real time    0.5518
    TRIAL :  cpu time  204.7606: real time  205.1981
    CORREC:  cpu time  180.4990: real time  180.8746
    CHARGE:  cpu time    2.3904: real time    2.3947
    --------------------------------------------
      LOOP:  cpu time  391.2686: real time  392.0930

 eigenvalue-minimisations  :     0
 total energy-change (2. order) :-0.6287300E-06  (-0.4864468E-06)
 number of electron     215.9999956 magnetization 
 augmentation part        5.1670027 magnetization 

 Free energy of the ion-electron system (eV)
  ---------------------------------------------------
  alpha Z        PSCENC =         7.69791958
  Ewald energy   TEWEN  =     38093.60359460
  -Hartree energ DENC   =    -44408.29553537
  -exchange      EXHF   =       577.21916142
  -V(xc)+E(xc)   XCENC  =       567.96598375
  PAW double counting   =     20019.84403743   -20041.60591044
  entropy T*S    EENTRO =        -0.00000000
  eigenvalues    EBANDS =     -3050.95413517
  atomic energy  EATOM  =      7618.61538196
  ---------------------------------------------------
  free energy    TOTEN  =      -615.90950226 eV

  energy without entropy =     -615.90950226  energy(sigma->0) =     -615.90950226
  exchange ACFDT corr.  =         0.00000000  see jH, gK, PRB 81, 115126


--------------------------------------------------------------------------------------------------------


  average scaling for gradient   1.1143


 average (electrostatic) potential at core
  the test charge radii are     0.6991  0.9406  0.5201  0.7089  0.7215
  (the norm of the test charge is              1.0000)
       1 -54.6449       2 -55.0623       3 -53.9238       4 -57.3991       5 -57.7459
       6 -56.1496       7 -55.0709       8 -55.1278       9 -55.1425      10 -56.0809
      11 -57.2826      12 -55.1184      13 -54.2665      14 -54.0703      15 -53.7055
      16 -53.6757      17 -53.9954      18 -53.9764      19 -53.9844      20 -54.2970
      21 -54.0796      22 -53.7019      23 -53.6517      24 -55.5224      25 -54.7651
      26 -54.4230      27 -53.9417      28 -53.9407      29 -54.3631      30 -54.4794
      31 -54.3315      32 -54.7062      33 -54.3902      34 -53.8968      35 -53.9967
      36 -96.5105      37 -37.5788      38 -37.7173      39 -36.8448      40 -36.9935
      41 -36.6345      42 -37.6811      43 -37.9307      44 -37.7466      45 -36.6851
      46 -36.7460      47 -36.8278      48 -36.5982      49 -36.5360      50 -36.4708
      51 -36.5807      52 -37.2762      53 -37.0912      54 -37.1673      55 -36.7874
      56 -36.8920      57 -36.6325      58 -36.6736      59 -36.6902      60 -36.4963
      61 -36.6377      62 -37.1981      63 -36.9398      64 -36.8433      65 -37.0533
      66 -36.6558      67 -37.0488      68 -36.6636      69 -37.6524      70 -37.4339
      71 -37.5704      72 -36.9851      73 -36.6733      74 -37.1591      75 -36.7243
      76 -36.9432      77 -37.1570      78 -36.7573      79 -69.9026      80 -68.2425
      81 -67.8355      82 -72.5929      83 -72.9546
 
 
 
 E-fermi :  -5.6311     XC(G=0):  -0.2635     alpha+bet : -0.1950


 k-point     1 :       0.0000    0.0000    0.0000
  band No.  band energies     occupation 
      1     -29.2540      2.00000
      2     -28.0681      2.00000
      3     -27.3309      2.00000
      4     -26.7322      2.00000
      5     -26.2209      2.00000
      6     -24.4389      2.00000
      7     -24.4152      2.00000
      8     -23.3832      2.00000
      9     -23.2580      2.00000
     10     -23.0300      2.00000
     11     -22.9968      2.00000
     12     -22.8120      2.00000
     13     -22.5410      2.00000
     14     -22.3149      2.00000
     15     -22.0622      2.00000
     16     -21.1925      2.00000
     17     -20.8644      2.00000
     18     -20.3665      2.00000
     19     -20.0820      2.00000
     20     -19.5209      2.00000
     21     -19.1055      2.00000
     22     -19.0029      2.00000
     23     -18.9686      2.00000
     24     -18.9459      2.00000
     25     -18.8982      2.00000
     26     -18.8241      2.00000
     27     -18.5437      2.00000
     28     -18.0043      2.00000
     29     -17.5366      2.00000
     30     -17.5099      2.00000
     31     -17.2951      2.00000
     32     -16.7177      2.00000
     33     -16.6189      2.00000
     34     -16.3297      2.00000
     35     -16.0892      2.00000
     36     -15.4909      2.00000
     37     -15.2413      2.00000
     38     -15.1774      2.00000
     39     -14.8572      2.00000
     40     -14.6619      2.00000
     41     -14.2493      2.00000
     42     -14.1794      2.00000
     43     -14.0287      2.00000
     44     -13.7971      2.00000
     45     -13.6076      2.00000
     46     -13.4819      2.00000
     47     -13.1963      2.00000
     48     -13.0835      2.00000
     49     -12.9510      2.00000
     50     -12.8332      2.00000
     51     -12.7570      2.00000
     52     -12.6639      2.00000
     53     -12.5997      2.00000
     54     -12.5679      2.00000
     55     -12.4749      2.00000
     56     -12.3430      2.00000
     57     -12.2938      2.00000
     58     -11.9933      2.00000
     59     -11.9644      2.00000
     60     -11.8983      2.00000
     61     -11.6818      2.00000
     62     -11.6183      2.00000
     63     -11.5436      2.00000
     64     -11.3282      2.00000
     65     -11.2517      2.00000
     66     -11.1919      2.00000
     67     -11.0650      2.00000
     68     -10.8873      2.00000
     69     -10.8493      2.00000
     70     -10.7598      2.00000
     71     -10.7277      2.00000
     72     -10.7039      2.00000
     73     -10.5817      2.00000
     74     -10.5281      2.00000
     75     -10.4600      2.00000
     76     -10.3553      2.00000
     77     -10.2963      2.00000
     78     -10.2657      2.00000
     79     -10.1820      2.00000
     80      -9.9440      2.00000
     81      -9.8678      2.00000
     82      -9.7580      2.00000
     83      -9.7474      2.00000
     84      -9.6555      2.00000
     85      -9.4885      2.00000
     86      -9.4403      2.00000
     87      -9.4011      2.00000
     88      -9.2809      2.00000
     89      -9.2633      2.00000
     90      -9.0511      2.00000
     91      -8.9337      2.00000
     92      -8.8636      2.00000
     93      -8.8101      2.00000
     94      -8.7167      2.00000
     95      -8.7028      2.00000
     96      -8.5609      2.00000
     97      -8.3462      2.00000
     98      -8.2717      2.00000
     99      -8.1661      2.00000
    100      -7.8399      2.00000
    101      -7.5868      2.00000
    102      -7.5572      2.00000
    103      -7.4332      2.00000
    104      -7.1753      2.00000
    105      -6.8332      2.00000
    106      -6.6454      2.00000
    107      -6.2380      2.00000
    108      -5.9534      2.00000
    109      -2.4510      0.00000
    110      -1.8062      0.00000
    111      -1.5332      0.00000
    112      -0.3369      0.00000
    113      -0.3281      0.00000
    114      -0.1237      0.00000
    115      -0.0293      0.00000
    116       0.0080      0.00000
    117       0.0786      0.00000
    118       0.1107      0.00000
    119       0.1242      0.00000
    120       0.1495      0.00000
    121       0.1789      0.00000
    122       0.1956      0.00000
    123       0.2220      0.00000
    124       0.2959      0.00000
    125       0.3066      0.00000
    126       0.3264      0.00000
    127       0.3394      0.00000
    128       0.3504      0.00000
    129       0.3736      0.00000
    130       0.3894      0.00000
    131       0.3943      0.00000
    132       0.4070      0.00000
    133       0.4106      0.00000
    134       0.4145      0.00000
    135       0.4201      0.00000
    136       0.5018      0.00000
    137       0.5200      0.00000
    138       0.5327      0.00000
    139       0.5351      0.00000
    140       0.5464      0.00000
    141       0.5546      0.00000
    142       0.5560      0.00000
    143       0.5770      0.00000
    144       0.5827      0.00000
    145       0.5995      0.00000
    146       0.6163      0.00000
    147       0.6609      0.00000
    148       0.6717      0.00000
    149       0.7510      0.00000
    150       0.8057      0.00000
    151       0.8692      0.00000
    152       0.9276      0.00000


--------------------------------------------------------------------------------------------------------


 soft charge-density along one line, spin component           1
         0         1         2         3         4         5         6         7         8         9
 total charge-density along one line
 
 pseudopotential strength for first ion, spin component:           1
  9.968  13.254  -0.000   0.003  -0.003   0.000  -0.006   0.003
 13.254  17.621  -0.000   0.004  -0.004   0.000  -0.008   0.004
 -0.000  -0.000  -4.175  -0.000   0.000   8.143   0.000  -0.001
  0.003   0.004  -0.000  -4.190   0.002   0.000   8.169  -0.004
 -0.003  -0.004   0.000   0.002  -4.204  -0.001  -0.004   8.194
  0.000   0.000   8.143   0.000  -0.001 -17.996  -0.001   0.001
 -0.006  -0.008   0.000   8.169  -0.004  -0.001 -18.043   0.007
  0.003   0.004  -0.001  -0.004   8.194   0.001   0.007 -18.087
 total augmentation occupancy for first ion, spin component:           1
  8.956  -4.022  -0.013  -0.186   0.438  -0.002  -0.029   0.079
 -4.022   1.836   0.009   0.096  -0.250   0.001   0.015  -0.045
 -0.013   0.009   1.114   0.007  -0.007   0.071   0.001  -0.001
 -0.186   0.096   0.007   1.719  -0.053   0.001   0.151  -0.011
  0.438  -0.250  -0.007  -0.053   2.013  -0.001  -0.011   0.193
 -0.002   0.001   0.071   0.001  -0.001   0.005   0.000  -0.000
 -0.029   0.015   0.001   0.151  -0.011   0.000   0.014  -0.002
  0.079  -0.045  -0.001  -0.011   0.193  -0.000  -0.002   0.019


------------------------ aborting loop because EDIFF is reached ----------------------------------------


    FORLOC:  cpu time    1.9469: real time    1.9504
    FORHF :  cpu time  164.7137: real time  165.0734
    FORNL :  cpu time   35.0559: real time   35.1379
    FORCOR:  cpu time    4.2371: real time    4.2439
    OFIELD:  cpu time    0.0068: real time    0.0068

  Hirshfeld charges:
            ion         q(e)     
   ------------------------------
      1     C          -0.061
      2     C           0.003
      3     C          -0.116
      4     C           0.172
      5     C           0.182
      6     C           0.051
      7     C          -0.023
      8     C          -0.029
      9     C          -0.020
     10     C           0.051
     11     C           0.115
     12     C           0.030
     13     C          -0.004
     14     C          -0.034
     15     C          -0.114
     16     C          -0.117
     17     C          -0.054
     18     C          -0.059
     19     C          -0.054
     20     C          -0.006
     21     C          -0.036
     22     C          -0.113
     23     C          -0.118
     24     C           0.033
     25     C           0.012
     26     C          -0.029
     27     C          -0.108
     28     C          -0.114
     29     C          -0.048
     30     C          -0.044
     31     C          -0.047
     32     C           0.007
     33     C          -0.030
     34     C          -0.110
     35     C          -0.113
     36     Cl          0.020
     37     H           0.056
     38     H           0.040
     39     H           0.042
     40     H           0.042
     41     H           0.032
     42     H           0.049
     43     H           0.065
     44     H           0.050
     45     H           0.035
     46     H           0.036
     47     H           0.039
     48     H           0.038
     49     H           0.035
     50     H           0.029
     51     H           0.029
     52     H           0.047
     53     H           0.044
     54     H           0.043
     55     H           0.032
     56     H           0.038
     57     H           0.037
     58     H           0.039
     59     H           0.037
     60     H           0.033
     61     H           0.025
     62     H           0.042
     63     H           0.038
     64     H           0.040
     65     H           0.039
     66     H           0.037
     67     H           0.024
     68     H           0.035
     69     H           0.045
     70     H           0.050
     71     H           0.047
     72     H           0.040
     73     H           0.037
     74     H           0.039
     75     H           0.034
     76     H           0.032
     77     H           0.039
     78     H           0.040
     79     N          -0.021
     80     N          -0.094
     81     N          -0.125
     82     O          -0.230
     83     O          -0.254

  Atomic reference data used in the T-S method for vdW correction:
            C6at              R0at           ALPHAat      REFSTATE
            (au)              (au)            (au)                
   ---------------------------------------------------------------
   C          46.600          3.590         12.000         0
   Cl         94.600          3.704         15.000         0
   H           6.500          3.099          4.500         0
   N          24.200          3.345          7.400         0
   O          15.600          3.194          5.400         0

  Tkatchenko/Scheffler method for vdW energy calculation
  ---------------------------------------------------------------------------------------------

  Parameters of vdW forcefield:
            C6ts              R0ts           ALPHAts        RELVOL
            (au)              (au)            (au)                
   ---------------------------------------------------------------
   C          28.650          3.311          9.409          0.784
   C          32.240          3.377          9.981          0.832
   C          28.561          3.309          9.394          0.783
   C          32.865          3.387         10.078          0.840
   C          32.733          3.385         10.057          0.838
   C          32.675          3.384         10.048          0.837
   C          30.172          3.340          9.656          0.805
   C          28.864          3.315          9.444          0.787
   C          30.237          3.341          9.666          0.806
   C          33.018          3.390         10.101          0.842
   C          33.907          3.405         10.236          0.853
   C          34.686          3.418         10.353          0.863
   C          33.913          3.405         10.237          0.853
   C          32.454          3.380         10.014          0.835
   C          28.454          3.307          9.377          0.781
   C          29.500          3.327          9.548          0.796
   C          31.372          3.361          9.846          0.820
   C          30.783          3.351          9.753          0.813
   C          31.737          3.368          9.903          0.825
   C          34.203          3.410         10.281          0.857
   C          32.841          3.387         10.074          0.839
   C          28.560          3.309          9.394          0.783
   C          28.970          3.317          9.461          0.788
   C          34.847          3.421         10.377          0.865
   C          33.908          3.405         10.236          0.853
   C          32.203          3.376          9.976          0.831
   C          28.396          3.306          9.367          0.781
   C          29.008          3.318          9.468          0.789
   C          31.051          3.356          9.795          0.816
   C          30.012          3.337          9.630          0.803
   C          31.131          3.357          9.808          0.817
   C          34.052          3.408         10.258          0.855
   C          32.529          3.382         10.026          0.835
   C          28.604          3.310          9.402          0.783
   C          28.959          3.317          9.460          0.788
   Cl         79.786          3.600         13.775          0.918
   H           2.408          2.626          2.739          0.609
   H           3.104          2.740          3.109          0.691
   H           2.494          2.642          2.788          0.619
   H           2.474          2.638          2.776          0.617
   H           3.164          2.749          3.139          0.698
   H           2.825          2.697          2.967          0.659
   H           2.164          2.580          2.597          0.577
   H           2.887          2.707          2.999          0.666
   H           3.027          2.729          3.071          0.682
   H           2.557          2.653          2.823          0.627
   H           2.732          2.682          2.918          0.648
   H           2.418          2.628          2.745          0.610
   H           2.579          2.657          2.835          0.630
   H           3.021          2.728          3.068          0.682
   H           2.727          2.681          2.915          0.648
   H           2.781          2.690          2.943          0.654
   H           2.447          2.633          2.761          0.614
   H           2.859          2.703          2.984          0.663
   H           3.219          2.757          3.167          0.704
   H           2.734          2.683          2.918          0.649
   H           2.645          2.668          2.871          0.638
   H           2.424          2.629          2.748          0.611
   H           2.521          2.646          2.802          0.623
   H           2.538          2.649          2.812          0.625
   H           2.988          2.723          3.051          0.678
   H           2.980          2.721          3.047          0.677
   H           2.712          2.679          2.907          0.646
   H           2.359          2.617          2.711          0.602
   H           2.685          2.675          2.892          0.643
   H           2.422          2.629          2.747          0.610
   H           3.008          2.726          3.061          0.680
   H           2.648          2.668          2.872          0.638
   H           2.817          2.696          2.962          0.658
   H           2.339          2.614          2.699          0.600
   H           2.789          2.691          2.947          0.655
   H           3.060          2.733          3.088          0.686
   H           2.401          2.625          2.735          0.608
   H           2.606          2.661          2.850          0.633
   H           2.640          2.667          2.868          0.637
   H           2.820          2.697          2.964          0.659
   H           2.827          2.698          2.968          0.659
   H           2.538          2.650          2.812          0.625
   N          18.363          3.194          6.446          0.871
   N          18.791          3.207          6.521          0.881
   N          19.467          3.226          6.637          0.897
   O          13.873          3.132          5.092          0.943
   O          13.797          3.129          5.078          0.940

  IVDW =   2
  VDW_RADIUS =    50.000 A
  VDW_IDAMPF =  0
  VDW_S6 =     1.000
  VDW_SR =     0.940
  VDW_D =    20.000
  LVDW_ONECELL = F F F
  LVDW_SAMETYPE T T T T T
  LVDW_EWALD = F

  Number of pair interactions contributing to vdW energy:   72386
  Edisp (eV):   -1.77418
    FORVDW:  cpu time   19.2957: real time   19.3253

 VOLUME and BASIS-vectors are now :
 -----------------------------------------------------------------------------
  energy-cutoff  :      500.00
  volume of cell :    27000.00
      direct lattice vectors                 reciprocal lattice vectors
    30.000000000  0.000000000  0.000000000     0.033333333  0.000000000  0.000000000
     0.000000000 30.000000000  0.000000000     0.000000000  0.033333333  0.000000000
     0.000000000  0.000000000 30.000000000     0.000000000  0.000000000  0.033333333

  length of vectors
    30.000000000 30.000000000 30.000000000     0.033333333  0.033333333  0.033333333


 FORCES acting on ions:
    Electron-Ion                     Ewald-Force                    Non-Local-Force
 -----------------------------------------------------------------------------------------------
   0.223E+03 0.901E+01 -.290E+03   -.225E+03 -.893E+01 0.290E+03   -.575E-01 -.119E+00 0.670E+00
   0.229E+02 0.129E+02 -.243E+03   -.214E+02 -.129E+02 0.246E+03   -.208E+00 -.644E-02 -.157E+01
   -.686E+02 0.499E+01 -.326E+03   0.712E+02 -.500E+01 0.326E+03   -.321E+01 0.595E+00 -.551E+00
   0.382E+02 0.117E+02 -.157E+03   -.351E+02 -.118E+02 0.161E+03   0.290E+01 -.850E-01 -.467E+01
   -.558E+02 0.169E+01 0.118E+03   0.567E+02 -.150E+01 -.121E+03   -.610E+01 0.208E+00 -.990E-01
   0.160E+02 -.109E+01 0.154E+03   -.145E+02 0.137E+01 -.157E+03   0.274E+01 -.216E+00 0.277E+01
   0.413E+02 -.327E+02 0.322E+03   -.443E+02 0.331E+02 -.323E+03   0.121E+01 -.267E+00 0.116E+01
   -.774E+02 -.373E+02 0.352E+03   0.783E+02 0.375E+02 -.354E+03   0.403E+00 -.139E+00 0.121E+01
   -.158E+03 -.238E+02 0.249E+03   0.160E+03 0.238E+02 -.249E+03   -.104E+01 -.282E-03 0.681E+00
   -.896E+02 0.731E+01 0.541E+02   0.910E+02 -.703E+01 -.570E+02   -.352E+01 -.410E-01 0.117E+01
   0.510E+02 0.257E+02 -.503E+02   -.526E+02 -.254E+02 0.483E+02   0.338E+01 -.399E+00 0.229E+01
   -.121E+03 0.220E+01 -.443E+01   0.125E+03 -.277E+01 0.831E+01   -.380E+01 0.449E+00 -.297E+01
   -.140E+03 0.124E+03 -.250E+02   0.140E+03 -.126E+03 0.240E+02   -.539E+00 0.737E+00 0.161E+00
   -.277E+02 0.217E+03 0.344E+02   0.272E+02 -.219E+03 -.344E+02   0.513E+00 0.178E-02 0.789E-02
   -.148E+03 0.284E+03 0.188E+02   0.147E+03 -.285E+03 -.191E+02   -.348E+00 -.470E+00 0.428E-01
   -.945E+02 0.112E+03 0.262E+03   0.949E+02 -.111E+03 -.263E+03   -.746E+00 -.269E+00 -.957E+00
   -.250E+03 0.170E+03 -.950E+02   0.251E+03 -.171E+03 0.955E+02   -.314E+00 0.133E+01 0.229E+00
   -.291E+03 0.387E+02 -.176E+03   0.292E+03 -.389E+02 0.177E+03   -.291E+00 0.416E+00 -.165E+00
   -.228E+03 -.108E+03 -.181E+03   0.229E+03 0.108E+03 0.182E+03   -.536E+00 -.531E+00 -.838E+00
   -.134E+03 -.965E+02 -.910E+02   0.134E+03 0.979E+02 0.924E+02   0.283E+00 -.958E+00 -.431E+00
   -.151E+02 -.183E+03 -.856E+02   0.146E+02 0.184E+03 0.860E+02   0.746E+00 0.802E+00 -.129E+00
   -.113E+03 -.249E+03 -.169E+03   0.113E+03 0.249E+03 0.169E+03   -.840E+00 -.344E+00 0.273E+00
   -.797E+02 -.246E+03 0.149E+03   0.796E+02 0.246E+03 -.149E+03   -.856E+00 0.123E+01 -.127E+00
   0.132E+03 0.814E+01 0.193E+02   -.138E+03 -.783E+01 -.203E+02   0.590E+01 0.938E-01 0.648E+00
   0.172E+03 0.133E+03 0.376E+02   -.172E+03 -.135E+03 -.384E+02   -.195E+00 0.102E+01 0.196E+00
   0.248E+02 0.227E+03 0.776E+02   -.246E+02 -.229E+03 -.785E+02   -.154E+01 -.413E+00 0.114E+01
   0.155E+03 0.269E+03 0.140E+03   -.155E+03 -.268E+03 -.141E+03   0.117E+01 -.233E+00 0.478E-01
   0.421E+02 0.268E+03 -.163E+03   -.424E+02 -.268E+03 0.163E+03   0.478E+00 -.204E+01 0.331E+00
   0.306E+03 0.139E+03 0.472E+02   -.306E+03 -.140E+03 -.476E+02   0.131E+01 0.113E+01 0.758E+00
   0.367E+03 -.147E+02 0.472E+02   -.368E+03 0.149E+02 -.472E+02   0.303E+00 -.563E-01 0.101E+00
   0.299E+03 -.163E+03 0.291E+02   -.299E+03 0.164E+03 -.294E+02   0.518E+00 -.143E+01 0.555E+00
   0.166E+03 -.135E+03 0.252E+02   -.167E+03 0.137E+03 -.255E+02   -.563E+00 -.855E+00 0.308E+00
   0.194E+02 -.239E+03 0.417E+02   -.184E+02 0.241E+03 -.423E+02   -.146E+01 0.105E+01 -.443E+00
   0.140E+03 -.296E+03 0.981E+02   -.139E+03 0.296E+03 -.988E+02   0.515E+00 0.723E+00 -.108E+01
   0.272E+02 -.261E+03 -.192E+03   -.268E+02 0.262E+03 0.193E+03   0.763E+00 0.548E+00 -.772E+00
   0.206E+02 0.134E+03 -.467E+03   -.220E+02 -.135E+03 0.473E+03   0.478E+00 0.906E+00 -.545E+01
   0.494E+02 0.535E+00 -.109E+03   -.505E+02 -.480E+00 0.114E+03   0.131E+01 -.676E-01 -.514E+01
   0.893E+02 0.364E+01 -.405E+02   -.946E+02 -.367E+01 0.364E+02   0.484E+01 0.422E-01 0.350E+01
   0.579E+00 -.607E+02 -.930E+02   -.997E+00 0.644E+02 0.953E+02   0.905E+00 -.427E+01 -.249E+01
   0.777E+01 0.570E+02 -.978E+02   -.878E+01 -.610E+02 0.101E+03   0.156E+01 0.405E+01 -.308E+01
   -.649E+02 0.424E+01 -.608E+02   0.703E+02 -.460E+01 0.590E+02   -.529E+01 0.249E+00 0.213E+01
   0.361E+02 -.133E+02 0.114E+03   -.412E+02 0.141E+02 -.119E+03   0.433E+01 -.641E+00 0.428E+01
   -.270E+02 -.129E+02 0.115E+03   0.283E+02 0.135E+02 -.120E+03   -.158E+01 -.588E+00 0.521E+01
   -.716E+02 -.945E+01 0.780E+02   0.776E+02 0.945E+01 -.794E+02   -.571E+01 0.352E-01 0.115E+01
   0.494E+02 0.776E+02 -.199E+02   -.538E+02 -.789E+02 0.216E+02   0.474E+01 0.137E+01 -.154E+01
   -.259E+02 0.782E+02 -.620E+02   0.261E+02 -.802E+02 0.672E+02   -.956E-01 0.160E+01 -.518E+01
   -.947E+02 0.336E+02 0.308E+02   0.998E+02 -.322E+02 -.325E+02   -.485E+01 -.178E+01 0.152E+01
   -.679E+01 0.959E+02 0.392E+02   0.554E+01 -.994E+02 -.418E+02   0.158E+01 0.383E+01 0.293E+01
   -.568E+02 0.524E+02 0.813E+02   0.596E+02 -.546E+02 -.839E+02   -.309E+01 0.277E+01 0.282E+01
   -.467E+02 -.356E+02 0.750E+02   0.475E+02 0.398E+02 -.758E+02   -.727E+00 -.499E+01 0.794E+00
   0.336E+02 0.506E+02 0.692E+02   -.383E+02 -.515E+02 -.711E+02   0.481E+01 0.103E+01 0.168E+01
   -.813E+02 0.745E+02 -.271E+02   0.844E+02 -.797E+02 0.273E+02   -.312E+01 0.486E+01 -.335E+00
   -.936E+02 0.110E+02 -.606E+02   0.984E+02 -.116E+02 0.638E+02   -.462E+01 0.420E+00 -.315E+01
   -.715E+02 -.547E+02 -.682E+02   0.737E+02 0.591E+02 0.715E+02   -.216E+01 -.425E+01 -.321E+01
   0.531E+02 -.463E+02 -.520E+02   -.583E+02 0.457E+02 0.538E+02   0.505E+01 -.459E-01 -.180E+01
   -.881E+02 -.610E+02 -.376E+01   0.936E+02 0.621E+02 0.195E+01   -.513E+01 -.593E+00 0.198E+01
   -.182E+02 -.220E+02 -.974E+02   0.183E+02 0.204E+02 0.102E+03   0.766E-01 0.225E+01 -.466E+01
   0.115E+02 -.975E+02 -.309E+02   -.138E+02 0.102E+03 0.310E+02   0.281E+01 -.435E+01 -.865E-01
   -.754E+02 -.701E+02 0.459E+02   0.802E+02 0.721E+02 -.474E+02   -.462E+01 -.219E+01 0.149E+01
   0.247E+02 -.983E+02 0.162E+02   -.275E+02 0.102E+03 -.161E+02   0.319E+01 -.383E+01 -.386E+00
   -.755E+01 -.288E+02 0.784E+02   0.567E+01 0.254E+02 -.826E+02   0.191E+01 0.323E+01 0.400E+01
   -.449E+02 0.653E+02 0.551E+02   0.499E+02 -.651E+02 -.581E+02   -.486E+01 0.173E+00 0.268E+01
   0.567E+02 0.242E+02 0.857E+02   -.590E+02 -.220E+02 -.902E+02   0.205E+01 -.297E+01 0.410E+01
   -.542E+01 0.991E+02 0.424E+02   0.774E+01 -.103E+03 -.441E+02   -.270E+01 0.419E+01 0.144E+01
   0.784E+02 0.751E+02 -.228E+02   -.820E+02 -.766E+02 0.259E+02   0.349E+01 0.170E+01 -.359E+01
   -.335E+02 0.100E+03 -.203E+02   0.363E+02 -.103E+03 0.201E+02   -.327E+01 0.362E+01 0.183E+00
   0.181E+01 0.339E+02 -.826E+02   0.129E+00 -.298E+02 0.877E+02   -.168E+01 -.334E+01 -.446E+01
   0.636E+02 0.804E+02 -.511E+02   -.666E+02 -.819E+02 0.524E+02   0.384E+01 0.247E+01 -.131E+01
   0.974E+02 0.678E+02 0.133E+02   -.101E+03 -.736E+02 -.140E+02   0.323E+01 0.507E+01 0.649E+00
   0.115E+03 -.670E+01 0.134E+02   -.121E+03 0.699E+01 -.140E+02   0.545E+01 -.440E+00 0.561E+00
   0.940E+02 -.745E+02 0.423E+01   -.970E+02 0.798E+02 -.421E+01   0.299E+01 -.502E+01 0.137E-01
   -.424E+02 -.691E+02 0.564E+02   0.465E+02 0.690E+02 -.592E+02   -.413E+01 -.239E+00 0.326E+01
   -.128E+02 -.100E+03 0.373E+02   0.151E+02 0.104E+03 -.384E+02   -.299E+01 -.362E+01 0.158E+01
   0.750E+02 -.786E+02 -.319E+02   -.791E+02 0.806E+02 0.360E+02   0.381E+01 -.171E+01 -.371E+01
   0.574E+02 -.425E+02 0.806E+02   -.597E+02 0.411E+02 -.849E+02   0.242E+01 0.161E+01 0.441E+01
   -.500E+02 -.548E+02 -.499E+02   0.553E+02 0.532E+02 0.518E+02   -.517E+01 0.133E+01 -.120E+01
   0.610E+02 -.364E+02 -.844E+02   -.648E+02 0.346E+02 0.883E+02   0.377E+01 0.185E+01 -.357E+01
   0.201E+01 -.111E+03 -.316E+02   -.201E+01 0.115E+03 0.318E+02   -.170E+00 -.495E+01 0.104E+00
   0.230E+02 0.167E+02 0.353E+01   -.242E+02 -.174E+02 -.306E+01   0.158E+01 0.392E+00 0.709E+00
   -.114E+03 -.310E+02 0.188E+03   0.122E+03 0.353E+02 -.215E+03   -.801E+01 -.383E+01 0.245E+02
   -.358E+02 0.312E+02 -.452E+02   0.271E+02 -.351E+02 0.779E+02   0.816E+01 0.304E+01 -.284E+02
   -.267E+03 0.135E+02 -.239E+03   0.314E+03 -.148E+02 0.238E+03   -.453E+02 0.139E+01 0.113E+01
   0.204E+03 -.408E+02 0.563E+03   -.231E+03 0.444E+02 -.600E+03   0.259E+02 -.347E+01 0.349E+02
 -----------------------------------------------------------------------------------------------
   0.210E+02 0.244E+01 -.356E+02   -.369E-12 -.199E-12 0.000E+00   -.181E+02 -.226E+01 0.309E+02
 
 
 POSITION                                       TOTAL-FORCE (eV/Angst)
 -----------------------------------------------------------------------------------
     10.95184     15.07522     17.70178        -2.800503     -0.061590      0.961217
     12.18997     15.05687     17.31243         1.287116     -0.035430      1.279599
     13.18515     15.05630     18.48363        -0.762962      0.627534     -0.196806
     12.77289     15.04963     15.99461         6.298757     -0.246076     -0.956285
     12.88547     15.12453     13.53794        -5.606705      0.413491     -3.722393
     14.28100     15.08967     13.21165         4.482800      0.051344     -0.126988
     14.66984     15.24200     11.87154        -1.633025      0.079674     -0.318524
     15.97715     15.24927     11.50851         1.229270      0.009058     -0.549012
     16.95212     15.10456     12.46775         1.567833     -0.035328      0.161982
     16.60358     14.94948     13.80751        -2.361082      0.249649     -1.654097
     17.65107     14.79326     14.82925         2.055643     -0.132016      0.447285
     20.01130     14.74757     15.23045        -0.059849     -0.094849      0.741064
     20.71156     13.55836     15.26724        -0.627391     -1.066041     -0.754841
     20.18785     12.44622     14.44245         0.014664     -1.053212      0.038786
     21.13499     11.27136     14.55999        -0.740954     -0.911653     -0.238530
     20.09929     12.81974     12.98554        -0.380700      0.476088     -1.718175
     21.84466     13.38138     16.01152         0.802519      0.565517      0.796279
     22.31970     14.43079     16.76347         0.380616      0.268351      0.350661
     21.64895     15.62630     16.74976        -0.264123      0.033354     -0.284297
     20.48606     15.79424     15.98071         0.563973      0.343973      0.873444
     19.78610     17.08278     15.97061         0.266483      2.009631      0.292330
     20.49994     18.07782     16.89746        -1.310441     -0.419036      0.474155
     19.76668     17.73813     14.60189        -1.023154      1.052748     -0.378910
     10.71151     15.09419     14.63496         0.181216      0.422433     -0.274967
      9.97892     13.94774     14.48087        -0.726944     -0.693497     -0.528778
     10.62991     12.61872     14.38488        -1.464632     -1.679570      0.327922
      9.62568     11.63968     13.69651         1.460751      0.020263     -0.344698
     10.81293     11.98103     15.74259         0.240621     -2.539355      0.777283
      8.57554     14.02189     14.33237         1.163081      0.410408      0.427815
      7.94524     15.23661     14.33904        -0.764054      0.134421      0.139208
      8.68306     16.38487     14.49046         0.114929     -0.650514      0.286051
     10.06941     16.31075     14.63720        -0.861495      0.224235     -0.043985
     10.79296     17.56979     14.73968        -0.577108      2.718729     -1.029660
      9.87316     18.69997     14.18499         1.411436      0.275399     -1.803527
     11.10048     18.05192     16.14256         1.198954      1.046535     -0.162928
     17.31718     14.49391     16.51050        -0.712901     -0.006456     -0.337466
     10.69375     15.08892     18.78042         0.353601     -0.025436     -0.713977
     10.09053     15.06972     17.06960        -0.281488     -0.004431     -0.456741
     12.98427     16.00772     19.04173         0.536981     -0.764710     -0.323289
     12.86869     14.21901     19.12454         0.619252      0.239251     -0.069782
     14.20855     15.00263     18.11322        -0.162087     -0.101723      0.432772
     13.93181     15.35579     11.10998        -0.528960      0.038185     -0.292166
     16.28681     15.36812     10.45813        -0.328825     -0.068041      0.559511
     18.00794     15.10303     12.22471        -0.042830      0.037178     -0.221472
     19.16940     12.15498     14.78130         0.559263      0.112157      0.055304
     21.16581     10.94518     15.60260         0.186531     -0.328156     -0.195147
     22.12411     11.62622     14.24923        -0.074421     -0.481147     -0.072921
     20.78705     10.43126     13.91114         0.423388      0.533107      0.496689
     20.79850     12.20173     12.36521        -0.444655      0.685312      0.427585
     20.27415     13.91107     12.80702         0.019645     -1.037254     -0.009686
     19.07803     12.59977     12.62444         0.420849      0.149607     -0.154877
     22.41159     12.46642     16.06012        -0.232441     -0.101547     -0.181593
     23.21496     14.34217     17.37186        -0.035324     -0.131045     -0.070197
     22.04608     16.43251     17.34903        -0.138176     -0.041936     -0.072241
     18.74716     17.06466     16.33142         0.151451     -0.602228     -0.113177
     21.50938     18.20376     16.51709         0.107767      0.481211      0.279436
     20.49879     17.60853     17.90386         0.227312      0.770377     -0.317834
     19.90530     19.01488     16.91140         0.664422     -0.348801      0.083164
     20.72956     18.17625     14.30875        -0.044903     -0.328772      0.089128
     19.05411     18.59630     14.68977         0.472961     -0.487497     -0.325168
     19.39121     17.09237     13.80707         0.114345      0.015749     -0.005739
     11.58376     12.60757     13.85866        -0.105601      0.382376     -0.144767
      9.19778     12.20948     12.86627        -0.185380     -0.858775     -0.215099
     10.20015     10.74399     13.38320        -0.526165      0.415816     -0.144339
      8.88444     11.30480     14.44225         0.055944      0.230028     -0.673519
     11.57378     11.14881     15.68304        -0.543065      0.811650      0.000469
     11.12161     12.60999     16.54960         0.174700      0.538746      0.436596
      9.87350     11.41187     16.04984         1.041527      1.083138     -0.093888
      8.01105     13.12930     14.21863        -0.326679     -0.395250     -0.065555
      6.85867     15.31856     14.22689         0.374557     -0.185139      0.003966
      8.14511     17.31652     14.49200         0.164029      0.070914      0.034590
     11.67836     17.60105     14.07266        -0.218417     -0.329004      0.584898
     10.55238     19.53482     13.85329        -0.850529     -0.436399      0.643274
      9.13832     19.02420     14.90947        -0.068408      0.296783      0.145863
      9.35732     18.36254     13.26815         0.169744      0.300630      0.325348
     12.12002     17.76686     16.39947        -0.149667     -0.272351      0.601472
     10.35413     17.68886     16.84715         0.210428      0.129215      0.173126
     11.12601     19.17921     16.11732        -0.167079     -1.071446      0.279594
     12.15529     15.07380     14.73404         0.603175     -0.268638      1.272534
     18.86713     14.86376     14.45779        -1.251163      0.120601     -0.338324
     15.30200     14.95624     14.05885         0.323209     -0.496501      1.366551
     14.08162     15.01944     16.00393        -5.949625      0.306490      0.506545
     12.10690     15.22882     12.48959         2.638165     -0.390510      3.522872
 -----------------------------------------------------------------------------------
    total drift:                               -0.076804     -0.027003      0.083862


--------------------------------------------------------------------------------------------------------



  FREE ENERGIE OF THE ION-ELECTRON SYSTEM (eV)
  ---------------------------------------------------
  free  energy   TOTEN  =      -617.68367798 eV

  energy  without entropy=     -617.68367798  energy(sigma->0) =     -617.68367798
 


--------------------------------------------------------------------------------------------------------


    POTLOK:  cpu time    3.6170: real time    3.6236


--------------------------------------------------------------------------------------------------------


 stress matrix after NEB project (eV)
     -1.41000      0.11036     -0.22092
      0.11036     -1.01933     -0.19621
     -0.22092     -0.19621     -0.74233
  FORCES: max atom, RMS     6.742575    1.829695
  FORCE total and by dimension   16.669315    6.298757
  Stress total and by dimension    1.943489    1.409998
     LOOP+:  cpu time 9486.1901: real time 9507.5403
    4ORBIT:  cpu time    0.0000: real time    0.0000

 total amount of memory used by VASP on root node  2512553. kBytes
========================================================================

   base      :      30000. kBytes
   nonl-proj :     564743. kBytes
   fftplans  :     338850. kBytes
   grid      :     952390. kBytes
   one-center:        127. kBytes
   HF        :         23. kBytes
   nonlr-proj:        872. kBytes
   wavefun   :     625548. kBytes
 
  
  
 General timing and accounting informations for this job:
 ========================================================
  
                  Total CPU time used (sec):     9520.260
                            User time (sec):     9444.117
                          System time (sec):       76.142
                         Elapsed time (sec):     9545.894
  
                   Maximum memory used (kb):     3288940.
                   Average memory used (kb):           0.
  
                          Minor page faults:      1076591
                          Major page faults:          111
                 Voluntary context switches:         2732
