 vasp.5.4.1 24Jun15 (build Feb 10 2025 21:25:14) gamma-only                     
  
 executed on           IFC91_ompi date 2026.02.18  15:55:13
 running on    4 total cores
 distrk:  each k-point on    4 cores,    1 groups
 distr:  one band on NCORES_PER_BAND=   1 cores,    4 groups


--------------------------------------------------------------------------------------------------------


 INCAR:
 POTCAR:    PAW_PBE C 08Apr2002                   
 POTCAR:    PAW_PBE Cl 06Sep2000                  
 POTCAR:    PAW_PBE H 15Jun2001                   
 POTCAR:    PAW_PBE N 08Apr2002                   
 POTCAR:    PAW_PBE O 08Apr2002                   
 POTCAR:    PAW_PBE C 08Apr2002                   
   VRHFIN =C: s2p2                                                              
   LEXCH  = PE                                                                  
   EATOM  =   147.1560 eV,   10.8157 Ry                                         
                                                                                
   TITEL  = PAW_PBE C 08Apr2002                                                 
   LULTRA =        F    use ultrasoft PP ?                                      
   IUNSCR =        1    unscreen: 0-lin 1-nonlin 2-no                           
   RPACOR =    1.200    partial core radius                                     
   POMASS =   12.011; ZVAL   =    4.000    mass and valenz                      
   RCORE  =    1.500    outmost cutoff radius                                   
   RWIGS  =    1.630; RWIGS  =    0.863    wigner-seitz radius (au A)           
   ENMAX  =  400.000; ENMIN  =  300.000 eV                                      
   ICORE  =        2    local potential                                         
   LCOR   =        T    correct aug charges                                     
   LPAW   =        T    paw PP                                                  
   EAUG   =  644.873                                                            
   DEXC   =    0.000                                                            
   RMAX   =    1.529    core radius for proj-oper                               
   RAUG   =    1.300    factor for augmentation sphere                          
   RDEP   =    1.501    radius for radial grids                                 
   RDEPT  =    1.300    core radius for aug-charge                              
                                                                                
   Atomic configuration                                                         
    4 entries                                                                   
     n  l   j            E        occ.                                          
     1  0  0.50      -273.3789   2.0000                                         
     2  0  0.50       -13.7508   2.0000                                         
     2  1  0.50        -5.2854   2.0000                                         
     3  2  1.50        -5.4423   0.0000                                         
   Description                                                                  
     l       E           TYP  RCUT    TYP  RCUT                                 
     0    -13.7508458     23  1.200                                             
     0     -8.2022199     23  1.200                                             
     1     -5.2854383     23  1.500                                             
     1     34.0145650     23  1.500                                             
     2     -5.4423304      7  1.500                                             
  local pseudopotential read in
  partial core-charges read in
  partial kinetic energy density read in
  atomic valenz-charges read in
  non local Contribution for L=           0  read in
    real space projection operators read in
  non local Contribution for L=           0  read in
    real space projection operators read in
  non local Contribution for L=           1  read in
    real space projection operators read in
  non local Contribution for L=           1  read in
    real space projection operators read in
    PAW grid and wavefunctions read in
 
   number of l-projection  operators is LMAX  =           4
   number of lm-projection operators is LMMAX =           8
 
 POTCAR:    PAW_PBE Cl 06Sep2000                  
   VRHFIN =Cl: s2p5                                                             
   LEXCH  = PE                                                                  
   EATOM  =   409.7259 eV,   30.1140 Ry                                         
                                                                                
   TITEL  = PAW_PBE Cl 06Sep2000                                                
   LULTRA =        F    use ultrasoft PP ?                                      
   IUNSCR =        1    unscreen: 0-lin 1-nonlin 2-no                           
   RPACOR =    1.500    partial core radius                                     
   POMASS =   35.453; ZVAL   =    7.000    mass and valenz                      
   RCORE  =    1.900    outmost cutoff radius                                   
   RWIGS  =    2.100; RWIGS  =    1.111    wigner-seitz radius (au A)           
   ENMAX  =  262.472; ENMIN  =  196.854 eV                                      
   ICORE  =        2    local potential                                         
   LCOR   =        T    correct aug charges                                     
   LPAW   =        T    paw PP                                                  
   EAUG   =  356.192                                                            
   DEXC   =    0.000                                                            
   RMAX   =    1.945    core radius for proj-oper                               
   RAUG   =    1.300    factor for augmentation sphere                          
   RDEP   =    2.020    radius for radial grids                                 
   RDEPT  =    1.678    core radius for aug-charge                              
                                                                                
   Atomic configuration                                                         
    6 entries                                                                   
     n  l   j            E        occ.                                          
     1  0  0.50     -2751.1850   2.0000                                         
     2  0  0.50      -252.6861   2.0000                                         
     2  1  1.50      -191.6157   6.0000                                         
     3  0  0.50       -20.6916   2.0000                                         
     3  1  0.50        -8.5949   5.0000                                         
     3  2  1.50        -8.1635   0.0000                                         
   Description                                                                  
     l       E           TYP  RCUT    TYP  RCUT                                 
     0    -20.6915656     23  1.900                                             
     0    -22.0521482     23  1.900                                             
     1     -8.5948577     23  1.900                                             
     1     -5.3847331     23  1.900                                             
     2     -8.1634956     23  1.900                                             
  local pseudopotential read in
  partial core-charges read in
  partial kinetic energy density read in
  atomic valenz-charges read in
  non local Contribution for L=           0  read in
    real space projection operators read in
  non local Contribution for L=           0  read in
    real space projection operators read in
  non local Contribution for L=           1  read in
    real space projection operators read in
  non local Contribution for L=           1  read in
    real space projection operators read in
    PAW grid and wavefunctions read in
 
   number of l-projection  operators is LMAX  =           4
   number of lm-projection operators is LMMAX =           8
 
 POTCAR:    PAW_PBE H 15Jun2001                   
   VRHFIN =H: ultrasoft test                                                    
   LEXCH  = PE                                                                  
   EATOM  =    12.4884 eV,    0.9179 Ry                                         
                                                                                
   TITEL  = PAW_PBE H 15Jun2001                                                 
   LULTRA =        F    use ultrasoft PP ?                                      
   IUNSCR =        0    unscreen: 0-lin 1-nonlin 2-no                           
   RPACOR =    0.000    partial core radius                                     
   POMASS =    1.000; ZVAL   =    1.000    mass and valenz                      
   RCORE  =    1.100    outmost cutoff radius                                   
   RWIGS  =    0.700; RWIGS  =    0.370    wigner-seitz radius (au A)           
   ENMAX  =  250.000; ENMIN  =  200.000 eV                                      
   RCLOC  =    0.701    cutoff for local pot                                    
   LCOR   =        T    correct aug charges                                     
   LPAW   =        T    paw PP                                                  
   EAUG   =  400.000                                                            
   RMAX   =    1.123    core radius for proj-oper                               
   RAUG   =    1.200    factor for augmentation sphere                          
   RDEP   =    1.112    radius for radial grids                                 
   RDEPT  =    0.926    core radius for aug-charge                              
                                                                                
   Atomic configuration                                                         
    2 entries                                                                   
     n  l   j            E        occ.                                          
     1  0  0.50        -6.4927   1.0000                                         
     2  1  0.50        -3.4015   0.0000                                         
   Description                                                                  
     l       E           TYP  RCUT    TYP  RCUT                                 
     0     -6.4927494     23  1.100                                             
     0      6.8029130     23  1.100                                             
     1     -4.0817478     23  1.100                                             
  local pseudopotential read in
  atomic valenz-charges read in
  non local Contribution for L=           0  read in
    real space projection operators read in
  non local Contribution for L=           0  read in
    real space projection operators read in
  non local Contribution for L=           1  read in
    real space projection operators read in
    PAW grid and wavefunctions read in
 
   number of l-projection  operators is LMAX  =           3
   number of lm-projection operators is LMMAX =           5
 
 POTCAR:    PAW_PBE N 08Apr2002                   
   VRHFIN =N: s2p3                                                              
   LEXCH  = PE                                                                  
   EATOM  =   264.5486 eV,   19.4438 Ry                                         
                                                                                
   TITEL  = PAW_PBE N 08Apr2002                                                 
   LULTRA =        F    use ultrasoft PP ?                                      
   IUNSCR =        1    unscreen: 0-lin 1-nonlin 2-no                           
   RPACOR =    1.200    partial core radius                                     
   POMASS =   14.001; ZVAL   =    5.000    mass and valenz                      
   RCORE  =    1.500    outmost cutoff radius                                   
   RWIGS  =    1.400; RWIGS  =    0.741    wigner-seitz radius (au A)           
   ENMAX  =  400.000; ENMIN  =  300.000 eV                                      
   ICORE  =        2    local potential                                         
   LCOR   =        T    correct aug charges                                     
   LPAW   =        T    paw PP                                                  
   EAUG   =  627.112                                                            
   DEXC   =    0.000                                                            
   RMAX   =    1.529    core radius for proj-oper                               
   RAUG   =    1.300    factor for augmentation sphere                          
   RDEP   =    1.514    radius for radial grids                                 
   RDEPT  =    1.338    core radius for aug-charge                              
                                                                                
   Atomic configuration                                                         
    4 entries                                                                   
     n  l   j            E        occ.                                          
     1  0  0.50      -384.7179   2.0000                                         
     2  0  0.50       -18.5828   2.0000                                         
     2  1  0.50        -7.0898   3.0000                                         
     3  2  1.50        -6.8029   0.0000                                         
   Description                                                                  
     l       E           TYP  RCUT    TYP  RCUT                                 
     0    -18.5828119     23  1.200                                             
     0    -13.5018863     23  1.200                                             
     1     -7.0897853     23  1.500                                             
     1      9.5240782     23  1.500                                             
     2     -6.8029130      7  1.500                                             
  local pseudopotential read in
  partial core-charges read in
  partial kinetic energy density read in
  atomic valenz-charges read in
  non local Contribution for L=           0  read in
    real space projection operators read in
  non local Contribution for L=           0  read in
    real space projection operators read in
  non local Contribution for L=           1  read in
    real space projection operators read in
  non local Contribution for L=           1  read in
    real space projection operators read in
    PAW grid and wavefunctions read in
 
   number of l-projection  operators is LMAX  =           4
   number of lm-projection operators is LMMAX =           8
 
 POTCAR:    PAW_PBE O 08Apr2002                   
   VRHFIN =O: s2p4                                                              
   LEXCH  = PE                                                                  
   EATOM  =   432.3788 eV,   31.7789 Ry                                         
                                                                                
   TITEL  = PAW_PBE O 08Apr2002                                                 
   LULTRA =        F    use ultrasoft PP ?                                      
   IUNSCR =        1    unscreen: 0-lin 1-nonlin 2-no                           
   RPACOR =    1.200    partial core radius                                     
   POMASS =   16.000; ZVAL   =    6.000    mass and valenz                      
   RCORE  =    1.520    outmost cutoff radius                                   
   RWIGS  =    1.550; RWIGS  =    0.820    wigner-seitz radius (au A)           
   ENMAX  =  400.000; ENMIN  =  300.000 eV                                      
   ICORE  =        2    local potential                                         
   LCOR   =        T    correct aug charges                                     
   LPAW   =        T    paw PP                                                  
   EAUG   =  605.392                                                            
   DEXC   =    0.000                                                            
   RMAX   =    1.553    core radius for proj-oper                               
   RAUG   =    1.300    factor for augmentation sphere                          
   RDEP   =    1.550    radius for radial grids                                 
   RDEPT  =    1.329    core radius for aug-charge                              
                                                                                
   Atomic configuration                                                         
    4 entries                                                                   
     n  l   j            E        occ.                                          
     1  0  0.50      -514.6923   2.0000                                         
     2  0  0.50       -23.9615   2.0000                                         
     2  1  0.50        -9.0305   4.0000                                         
     3  2  1.50        -9.5241   0.0000                                         
   Description                                                                  
     l       E           TYP  RCUT    TYP  RCUT                                 
     0    -23.9615318     23  1.200                                             
     0     -9.5240782     23  1.200                                             
     1     -9.0304911     23  1.520                                             
     1      8.1634956     23  1.520                                             
     2     -9.5240782      7  1.500                                             
  local pseudopotential read in
  partial core-charges read in
  partial kinetic energy density read in
  kinetic energy density of atom read in
  atomic valenz-charges read in
  non local Contribution for L=           0  read in
    real space projection operators read in
  non local Contribution for L=           0  read in
    real space projection operators read in
  non local Contribution for L=           1  read in
    real space projection operators read in
  non local Contribution for L=           1  read in
    real space projection operators read in
    PAW grid and wavefunctions read in
 
   number of l-projection  operators is LMAX  =           4
   number of lm-projection operators is LMMAX =           8
 

 ----------------------------------------------------------------------------- 
|                                                                             |
|  ADVICE TO THIS USER RUNNING 'VASP/VAMP'   (HEAR YOUR MASTER'S VOICE ...):  |
|                                                                             |
|      You have a (more or less) 'large supercell' and for larger cells       |
|      it might be more efficient to use real space projection opertators     |
|      So try LREAL= Auto  in the INCAR   file.                               |
|      Mind: At the moment your POTCAR file does not contain real space       |
|       projectors, and has to be modified,  BUT if you                       |
|      want to do an extremely  accurate calculation you might also keep the  |
|      reciprocal projection scheme          (i.e. LREAL=.FALSE.)             |
|                                                                             |
 ----------------------------------------------------------------------------- 

  PAW_PBE C 08Apr2002                   :
 energy of atom  1       EATOM= -147.1560
 kinetic energy error for atom=    0.0076 (will be added to EATOM!!)
  PAW_PBE Cl 06Sep2000                  :
 energy of atom  2       EATOM= -409.7259
 kinetic energy error for atom=    0.0030 (will be added to EATOM!!)
  PAW_PBE H 15Jun2001                   :
 energy of atom  3       EATOM=  -12.4884
 kinetic energy error for atom=    0.0020 (will be added to EATOM!!)
  PAW_PBE N 08Apr2002                   :
 energy of atom  4       EATOM= -264.5486
 kinetic energy error for atom=    0.0138 (will be added to EATOM!!)
  PAW_PBE O 08Apr2002                   :
 energy of atom  5       EATOM= -432.3788
 kinetic energy error for atom=    0.0224 (will be added to EATOM!!)
 
 
 POSCAR: Molecule_POSCAR_04                      
  positions in cartesian coordinates
  No initial velocities read in
 exchange correlation table for  LEXCH =        8
   RHO(1)=    0.500       N(1)  =     2000
   RHO(2)=  100.500       N(2)  =     4000

 VTST: version 3.2, (02/03/18)

 CHAIN: initializing optimizer
 
 OPT: Using VASP Dynamics algorithm
 CHAIN: Read ICHAIN            0
 
 POSCAR: Molecule_POSCAR_04                      
  positions in cartesian coordinates
  No initial velocities read in
 


--------------------------------------------------------------------------------------------------------


 ion  position               nearest neighbor table
   1  0.694  0.518  0.531-  67 1.29  63 1.38   8 1.47
   2  0.733  0.569  0.478-   3 1.35  63 1.40   7 1.41
   3  0.774  0.568  0.497-  42 1.07   2 1.35   4 1.41
   4  0.810  0.592  0.479-   5 1.37   3 1.41  37 1.75
   5  0.805  0.618  0.443-  43 1.09   4 1.37   6 1.37
   6  0.763  0.620  0.424-  44 1.08   5 1.37   7 1.37
   7  0.728  0.596  0.440-   6 1.37   2 1.41  38 1.76
   8  0.657  0.493  0.549-  36 1.36   9 1.39   1 1.47
   9  0.664  0.467  0.586-  45 1.08  10 1.38   8 1.39
  10  0.630  0.442  0.605-   9 1.38  11 1.38  15 1.39
  11  0.640  0.417  0.643-  46 1.08  12 1.38  10 1.38
  12  0.608  0.391  0.663-  47 1.08  13 1.37  11 1.38
  13  0.566  0.392  0.645-  48 1.08  12 1.37  14 1.40
  14  0.556  0.417  0.608-  49 1.07  15 1.38  13 1.40
  15  0.588  0.443  0.587-  16 1.38  14 1.38  10 1.39
  16  0.579  0.468  0.549-  15 1.38  36 1.40  17 1.45
  17  0.535  0.469  0.530-  50 1.10  64 1.26  16 1.45
  18  0.446  0.429  0.488-  51 1.07  65 1.28  19 1.45
  19  0.404  0.436  0.464-  35 1.39  20 1.40  18 1.45
  20  0.379  0.474  0.475-  68 1.33  21 1.40  19 1.40
  21  0.339  0.482  0.453-  29 1.39  20 1.40  22 1.45
  22  0.310  0.519  0.460-  69 1.28  66 1.39  21 1.45
  23  0.290  0.591  0.501-  24 1.36  28 1.39  66 1.42
  24  0.251  0.600  0.480-  54 1.08  23 1.36  25 1.40
  25  0.224  0.637  0.490-  26 1.37  24 1.40  39 1.74
  26  0.239  0.666  0.522-  55 1.09  25 1.37  27 1.38
  27  0.279  0.657  0.543-  56 1.09  28 1.37  26 1.38
  28  0.304  0.620  0.533-  27 1.37  23 1.39  40 1.75
  29  0.326  0.451  0.420-  57 1.09  30 1.38  21 1.39
  30  0.350  0.414  0.410-  35 1.38  29 1.38  31 1.40
  31  0.334  0.386  0.376-  58 1.08  32 1.38  30 1.40
  32  0.359  0.349  0.366-  59 1.10  33 1.37  31 1.38
  33  0.399  0.341  0.388-  60 1.08  32 1.37  34 1.39
  34  0.414  0.370  0.421-  61 1.08  35 1.36  33 1.39
  35  0.390  0.406  0.432-  34 1.36  30 1.38  19 1.39
  36  0.614  0.493  0.532-  70 1.35   8 1.36  16 1.40
  37  0.863  0.590  0.504-   4 1.75
  38  0.675  0.599  0.415-   7 1.76
  39  0.174  0.648  0.462-  25 1.74
  40  0.354  0.612  0.563-  28 1.75
  41  0.665  0.550  0.476-  63 1.07
  42  0.782  0.549  0.526-   3 1.07
  43  0.833  0.637  0.429-   5 1.09
  44  0.759  0.640  0.395-   6 1.08
  45  0.697  0.465  0.602-   9 1.08
  46  0.673  0.416  0.657-  11 1.08
  47  0.614  0.371  0.692-  12 1.08
  48  0.540  0.372  0.661-  13 1.08
  49  0.522  0.415  0.596-  14 1.07
  50  0.531  0.491  0.500-  17 1.10
  51  0.466  0.400  0.481-  18 1.07
  52  0.414  0.511  0.528-  68 0.93
  53  0.347  0.550  0.510-  66 1.07
  54  0.236  0.579  0.454-  24 1.08
  55  0.220  0.695  0.531-  26 1.09
  56  0.290  0.680  0.569-  27 1.09
  57  0.294  0.457  0.403-  29 1.09
  58  0.303  0.393  0.360-  31 1.08
  59  0.347  0.326  0.340-  32 1.10
  60  0.419  0.312  0.381-  33 1.08
  61  0.445  0.363  0.438-  34 1.08
  62  0.579  0.522  0.479-  70 0.97
  63  0.695  0.546  0.494-  41 1.07   1 1.38   2 1.40
  64  0.500  0.449  0.542-  17 1.26  65 1.40
  65  0.460  0.455  0.518-  18 1.28  64 1.40
  66  0.317  0.553  0.491-  53 1.07  22 1.39  23 1.42
  67  0.731  0.513  0.552-   1 1.29
  68  0.393  0.502  0.506-  52 0.93  20 1.33
  69  0.274  0.522  0.437-  22 1.28
  70  0.606  0.518  0.495-  62 0.97  36 1.35
 
  LATTYP: Found a simple cubic cell.
 ALAT       =    30.0000000000
  
  Lattice vectors:
  
 A1 = (  30.0000000000,   0.0000000000,   0.0000000000)
 A2 = (   0.0000000000,  30.0000000000,   0.0000000000)
 A3 = (   0.0000000000,   0.0000000000,  30.0000000000)


Analysis of symmetry for initial positions (statically):
=====================================================================
 Subroutine PRICEL returns:
 Original cell was already a primitive cell.
 

 Routine SETGRP: Setting up the symmetry group for a 
 simple cubic supercell.


 Subroutine GETGRP returns: Found  1 space group operations
 (whereof  1 operations were pure point group operations)
 out of a pool of 48 trial point group operations.


The static configuration has the point symmetry C_1 .


Analysis of symmetry for dynamics (positions and initial velocities):
=====================================================================
 Subroutine PRICEL returns:
 Original cell was already a primitive cell.
 

 Routine SETGRP: Setting up the symmetry group for a 
 simple cubic supercell.


 Subroutine GETGRP returns: Found  1 space group operations
 (whereof  1 operations were pure point group operations)
 out of a pool of 48 trial point group operations.


The dynamic configuration has the point symmetry C_1 .
 
 
 KPOINTS: Gamma-point only                        

Automatic generation of k-mesh.
Space group operators:
 irot       det(A)        alpha          n_x          n_y          n_z        tau_x        tau_y        tau_z
    1     1.000000     0.000000     1.000000     0.000000     0.000000     0.000000     0.000000     0.000000
 
 Subroutine IBZKPT returns following result:
 ===========================================
 
 Found      1 irreducible k-points:
 
 Following reciprocal coordinates:
            Coordinates               Weight
  0.000000  0.000000  0.000000      1.000000
 
 Following cartesian coordinates:
            Coordinates               Weight
  0.000000  0.000000  0.000000      1.000000
 
 
 Subroutine IBZKPT_HF returns following result:
 ==============================================
 
 Found      1 k-points in 1st BZ
 the following      1 k-points will be used (e.g. in the exchange kernel)
 Following reciprocal coordinates:   # in IRBZ
  0.000000  0.000000  0.000000    1.00000000   1 t-inv F


--------------------------------------------------------------------------------------------------------




 Dimension of arrays:
   k-points           NKPTS =      1   k-points in BZ     NKDIM =      1   number of bands    NBANDS=    156
   number of dos      NEDOS =    301   number of ions     NIONS =     70
   non local maximal  LDIM  =      4   non local SUM 2l+1 LMDIM =      8
   total plane-waves  NPLWV = ******
   max r-space proj   IRMAX =      1   max aug-charges    IRDMAX=   5247
   dimension x,y,z NGX =   168 NGY =  168 NGZ =  168
   dimension x,y,z NGXF=   336 NGYF=  336 NGZF=  336
   support grid    NGXF=   336 NGYF=  336 NGZF=  336
   ions per type =              36   4  22   4   4
 NGX,Y,Z   is equivalent  to a cutoff of   9.31,  9.31,  9.31 a.u.
 NGXF,Y,Z  is equivalent  to a cutoff of  18.62, 18.62, 18.62 a.u.


 I would recommend the setting:
   dimension x,y,z NGX =   164 NGY =  164 NGZ =  164
 SYSTEM =  Step2_PBE0_Final_Calc                   
 POSCAR =  Molecule_POSCAR_04                      

 Startparameter for this run:
   NWRITE =      2    write-flag & timer
   PREC   = normal    normal or accurate (medium, high low for compatibility)
   ISTART =      1    job   : 0-new  1-cont  2-samecut
   ICHARG =      0    charge: 1-file 2-atom 10-const
   ISPIN  =      1    spin polarized calculation?
   LNONCOLLINEAR =      F non collinear calculations
   LSORBIT =      F    spin-orbit coupling
   INIWAV =      1    electr: 0-lowe 1-rand  2-diag
   LASPH  =      T    aspherical Exc in radial PAW
   METAGGA=      F    non-selfconsistent MetaGGA calc.

 Electronic Relaxation 1
   ENCUT  =  500.0 eV  36.75 Ry    6.06 a.u.  54.70 54.70 54.70*2*pi/ulx,y,z
   ENINI  =  500.0     initial cutoff
   ENAUG  =  644.9 eV  augmentation charge cutoff
   NELM   =    100;   NELMIN=  2; NELMDL=  0     # of ELM steps 
   EDIFF  = 0.1E-05   stopping-criterion for ELM
   LREAL  =      F    real-space projection
   NLSPLINE    = F    spline interpolate recip. space projectors
   LCOMPAT=      F    compatible to vasp.4.4
   GGA_COMPAT  = T    GGA compatible to vasp.4.4-vasp.4.6
   LMAXPAW     = -100 max onsite density
   LMAXMIX     =    2 max onsite mixed and CHGCAR
   VOSKOWN=      0    Vosko Wilk Nusair interpolation
   ROPT   =    0.00000   0.00000   0.00000   0.00000
   ROPT   =    0.00000
 Ionic relaxation
   EDIFFG = 0.1E-04   stopping-criterion for IOM
   NSW    =      0    number of steps for IOM
   NBLOCK =      1;   KBLOCK =      1    inner block; outer block 
   IBRION =     -1    ionic relax: 0-MD 1-quasi-New 2-CG
   NFREE  =      0    steps in history (QN), initial steepest desc. (CG)
   ISIF   =      0    stress and relaxation
   IWAVPR =     10    prediction:  0-non 1-charg 2-wave 3-comb
   ISYM   =      3    0-nonsym 1-usesym 2-fastsym
   LCORR  =      T    Harris-Foulkes like correction to forces

   POTIM  = 0.5000    time-step for ionic-motion
   TEIN   =    0.0    initial temperature
   TEBEG  =    0.0;   TEEND  =   0.0 temperature during run
   SMASS  =  -3.00    Nose mass-parameter (am)
   estimated Nose-frequenzy (Omega)   =  0.10E-29 period in steps =****** mass=  -0.206E-25a.u.
   SCALEE = 1.0000    scale energy and forces
   NPACO  =    256;   APACO  = 16.0  distance and # of slots for P.C.
   PSTRESS=    0.0 pullay stress

  Mass of Ions in am
   POMASS =  12.01 35.45  1.00 14.00 16.00
  Ionic Valenz
   ZVAL   =   4.00  7.00  1.00  5.00  6.00
  Atomic Wigner-Seitz radii
   RWIGS  =  -1.00 -1.00 -1.00 -1.00 -1.00
  virtual crystal weights 
   VCA    =   1.00  1.00  1.00  1.00  1.00
   NELECT =     238.0000    total number of electrons
   NUPDOWN=      -1.0000    fix difference up-down

 DOS related values:
   EMIN   =  10.00;   EMAX   =-10.00  energy-range for DOS
   EFERMI =   0.00
   ISMEAR =     0;   SIGMA  =   0.05  broadening in eV -4-tet -1-fermi 0-gaus

 Electronic relaxation 2 (details)
   IALGO  =     58    algorithm
   LDIAG  =      T    sub-space diagonalisation (order eigenvalues)
   LSUBROT=      F    optimize rotation matrix (better conditioning)
   TURBO    =      0    0=normal 1=particle mesh
   IRESTART =      0    0=no restart 2=restart with 2 vectors
   NREBOOT  =      0    no. of reboots
   NMIN     =      0    reboot dimension
   EREF     =   0.00    reference energy to select bands
   IMIX   =      4    mixing-type and parameters
     AMIX     =   0.40;   BMIX     =  1.00
     AMIX_MAG =   1.60;   BMIX_MAG =  1.00
     AMIN     =   0.10
     WC   =   100.;   INIMIX=   1;  MIXPRE=   1;  MAXMIX= -45

 Intra band minimization:
   WEIMIN = 0.0000     energy-eigenvalue tresh-hold
   EBREAK =  0.16E-08  absolut break condition
   DEPER  =   0.30     relativ break condition  

   TIME   =   0.40     timestep for ELM

  volume/ion in A,a.u.               =     385.71      2602.93
  Fermi-wavevector in a.u.,A,eV,Ry     =   0.338178  0.639065  1.556025  0.114365
  Thomas-Fermi vector in A             =   1.240015
 
 Write flags
   LWAVE  =      F    write WAVECAR
   LCHARG =      F    write CHGCAR
   LVTOT  =      F    write LOCPOT, total local potential
   LVHAR  =      F    write LOCPOT, Hartree potential only
   LELF   =      F    write electronic localiz. function (ELF)
   LORBIT =      0    0 simple, 1 ext, 2 COOP (PROOUT)


 Dipole corrections
   LMONO  =      F    monopole corrections only (constant potential shift)
   LDIPOL =      F    correct potential (dipole corrections)
   IDIPOL =      0    1-x, 2-y, 3-z, 4-all directions 
   EPSILON=  1.0000000 bulk dielectric constant

 Exchange correlation treatment:
   GGA     =    PE    GGA type
   LEXCH   =     8    internal setting for exchange type
   VOSKOWN=      0    Vosko Wilk Nusair interpolation
   EXXOEP  =     0    0=HF, 1=EXX-LHF (local Hartree Fock) 2=EXX OEP
   LHFCALC =     T    Hartree Fock is set to
   LSYMGRAD=     F    symmetrize gradient (conserves proper symmetry)
   PRECFOCK=fast      Normal, Fast or Accurate (Low or Medium for compatibility)
   LRHFCALC=     F    long range Hartree Fock
   LRSCOR  =     F    long range correlation only (use DFT for short range part)
   LTHOMAS =     F    Thomas Fermi screening in HF
   LMODELHF=     F    short range full HF, long range fraction AEXX
   ENCUT4O =  -1.0   cutoff for four orbital integrals eV
   LMAXFOCK=     4    L truncation for augmentation on plane wave grid
   LMAXFOCKAE=  -1    L truncation for all-electron charge restoration on plane wave grid
   NMAXFOCKAE=   1    number of basis functions for all-electron charge restoration
   LFOCKAEDFT=     F  apply the AE augmentation even for DFT
   NKREDX  =     1    reduce k-point grid by
   NKREDY  =     1    reduce k-point grid by
   NKREDZ  =     1    reduce k-point grid by
   SHIFTRED=     F    shift reduced grid of Gamma
   HFKIDENT=     F    idential grid for each k-point
   ODDONLY =     F    use only odd q-grid points
   EVENONLY=     F    use only even q-grid points
   HFALPHA =   -1.0000 decay constant for conv. correction
   MCALPHA =    0.0000 extent of test-charge in conv. correction in multipole expansion
   AEXX    =    0.2500 exact exchange contribution
   HFSCREEN=    0.0000 screening length (either q_TF or 0.3 A-1)
   HFSCREENC=   0.0000 screening length for correlation (either q_TF or 0.3 A-1)
   HFRCUT  =    0.0000 spherical cutoff for potential kernel
   ALDAX   =    0.7500 LDA exchange part
   AGGAX   =    0.7500 GGA exchange part
   ALDAC   =    1.0000 LDA correlation
   AGGAC   =    1.0000 GGA correlation
   NBANDSGWLOW=     1    first orbital included in HF term
   ENCUTFOCK=  -1.0 apply spherical cutoff to Coloumb kernel
 Linear response parameters
   LEPSILON=     F    determine dielectric tensor
   LRPA    =     F    only Hartree local field effects (RPA)
   LNABLA  =     F    use nabla operator in PAW spheres
   LVEL    =     F    velocity operator in full k-point grid
   LINTERFAST=   F  fast interpolation
   KINTER  =     0    interpolate to denser k-point grid
   CSHIFT  =0.1000    complex shift for real part using Kramers Kronig
   OMEGAMAX=  -1.0    maximum frequency
   DEG_THRESHOLD= 0.2000000E-02 threshold for treating states as degnerate
   RTIME   =    0.100 relaxation time in fs

 Orbital magnetization related:
   ORBITALMAG=     F  switch on orbital magnetization
   LCHIMAG   =     F  perturbation theory with respect to B field
   DQ        =  0.001000  dq finite difference perturbation B field



--------------------------------------------------------------------------------------------------------


 Static calculation
 charge density and potential will be updated during run
 non-spin polarized calculation
 Conjugate gradient for all bands (Freysoldt, et al. PRB 79, 241103 (2009))
 preconditioned conjugated gradient                                        
 perform sub-space diagonalisation
    before iterative eigenvector-optimisation
 modified Broyden-mixing scheme, WC =      100.0
 initial mixing is a Kerker type mixing with AMIX =  0.4000 and BMIX =      1.0000
 Hartree-type preconditioning will be used
 using additional bands           37
 reciprocal scheme for non local part
 use partial core corrections
 no Harris-corrections to forces 
 use gradient corrections 
 use of overlap-Matrix (Vanderbilt PP)
 Gauss-broadening in eV      SIGMA  =   0.05


--------------------------------------------------------------------------------------------------------


  energy-cutoff  :      500.00
  volume of cell :    27000.00
      direct lattice vectors                 reciprocal lattice vectors
    30.000000000  0.000000000  0.000000000     0.033333333  0.000000000  0.000000000
     0.000000000 30.000000000  0.000000000     0.000000000  0.033333333  0.000000000
     0.000000000  0.000000000 30.000000000     0.000000000  0.000000000  0.033333333

  length of vectors
    30.000000000 30.000000000 30.000000000     0.033333333  0.033333333  0.033333333


 
 old parameters found on file WAVECAR:
  energy-cutoff  :      500.00
  volume of cell :    27000.00
      direct lattice vectors                 reciprocal lattice vectors
    30.000000000  0.000000000  0.000000000     0.033333333  0.000000000  0.000000000
     0.000000000 30.000000000  0.000000000     0.000000000  0.033333333  0.000000000
     0.000000000  0.000000000 30.000000000     0.000000000  0.000000000  0.033333333

  length of vectors

 
 k-points in units of 2pi/SCALE and weight: Gamma-point only                        
   0.00000000  0.00000000  0.00000000       1.000
 
 k-points in reciprocal lattice and weights: Gamma-point only                        
   0.00000000  0.00000000  0.00000000       1.000
 
 position of ions in fractional coordinates (direct lattice) 
   0.69444823  0.51779453  0.53077467
   0.73265563  0.56925077  0.47820090
   0.77375377  0.56785333  0.49683027
   0.80997580  0.59213967  0.47943287
   0.80484420  0.61837200  0.44257493
   0.76324810  0.61985713  0.42362633
   0.72759733  0.59641843  0.44013353
   0.65655463  0.49263663  0.54865557
   0.66426563  0.46658517  0.58629170
   0.63048747  0.44189567  0.60522740
   0.64042157  0.41672280  0.64260380
   0.60811667  0.39129763  0.66311270
   0.56606110  0.39174063  0.64539940
   0.55561023  0.41707823  0.60759417
   0.58787327  0.44270463  0.58680187
   0.57888267  0.46813030  0.54947407
   0.53458927  0.46939880  0.52977633
   0.44573877  0.42882067  0.48822043
   0.40437323  0.43574743  0.46421440
   0.37901370  0.47359113  0.47500920
   0.33879907  0.48158740  0.45261443
   0.30953360  0.51910020  0.46039717
   0.28991727  0.59050877  0.50076700
   0.25083987  0.59981550  0.48010370
   0.22448660  0.63719287  0.48982980
   0.23908673  0.66597687  0.52209443
   0.27872320  0.65708377  0.54346950
   0.30397693  0.62024703  0.53337380
   0.32553267  0.45132503  0.42023420
   0.35033587  0.41417193  0.40957050
   0.33405480  0.38562320  0.37635810
   0.35928857  0.34871570  0.36618593
   0.39866557  0.34095357  0.38816547
   0.41448680  0.36951377  0.42106127
   0.38987553  0.40623590  0.43153313
   0.61439950  0.49256067  0.53158863
   0.86287937  0.58983960  0.50407980
   0.67467793  0.59911933  0.41495430
   0.17442617  0.64772533  0.46229937
   0.35376900  0.61240060  0.56275840
   0.66459260  0.54968633  0.47637660
   0.78238323  0.54871580  0.52571500
   0.83313807  0.63706587  0.42935060
   0.75872677  0.64043347  0.39451340
   0.69666693  0.46479950  0.60185040
   0.67347240  0.41591520  0.65713340
   0.61440690  0.37113253  0.69237357
   0.54037730  0.37198770  0.66109450
   0.52186517  0.41543350  0.59602850
   0.53142027  0.49073930  0.50022423
   0.46618360  0.40045313  0.48115007
   0.41364820  0.51057457  0.52762197
   0.34666500  0.55031463  0.51042027
   0.23644827  0.57919830  0.45419683
   0.21956663  0.69545970  0.53066563
   0.29006083  0.68027537  0.56916287
   0.29430090  0.45722710  0.40260727
   0.30283910  0.39345417  0.36020787
   0.34697827  0.32606220  0.34026123
   0.41891167  0.31227317  0.38071320
   0.44549937  0.36253347  0.43771423
   0.57885053  0.52151393  0.47876843
   0.69542430  0.54574727  0.49415600
   0.49975810  0.44941523  0.54207280
   0.46013983  0.45513237  0.51838573
   0.31673263  0.55287877  0.49116550
   0.73132043  0.51289390  0.55228293
   0.39303657  0.50164247  0.50624517
   0.27391200  0.52162100  0.43708670
   0.60640790  0.51768747  0.49506147
 
 position of ions in cartesian coordinates  (Angst):
  20.83344700 15.53383600 15.92324000
  21.97966900 17.07752300 14.34602700
  23.21261300 17.03560000 14.90490800
  24.29927400 17.76419000 14.38298600
  24.14532600 18.55116000 13.27724800
  22.89744300 18.59571400 12.70879000
  21.82792000 17.89255300 13.20400600
  19.69663900 14.77909900 16.45966700
  19.92796900 13.99755500 17.58875100
  18.91462400 13.25687000 18.15682200
  19.21264700 12.50168400 19.27811400
  18.24350000 11.73892900 19.89338100
  16.98183300 11.75221900 19.36198200
  16.66830700 12.51234700 18.22782500
  17.63619800 13.28113900 17.60405600
  17.36648000 14.04390900 16.48422200
  16.03767800 14.08196400 15.89329000
  13.37216300 12.86462000 14.64661300
  12.13119700 13.07242300 13.92643200
  11.37041100 14.20773400 14.25027600
  10.16397200 14.44762200 13.57843300
   9.28600800 15.57300600 13.81191500
   8.69751800 17.71526300 15.02301000
   7.52519600 17.99446500 14.40311100
   6.73459800 19.11578600 14.69489400
   7.17260200 19.97930600 15.66283300
   8.36169600 19.71251300 16.30408500
   9.11930800 18.60741100 16.00121400
   9.76598000 13.53975100 12.60702600
  10.51007600 12.42515800 12.28711500
  10.02164400 11.56869600 11.29074300
  10.77865700 10.46147100 10.98557800
  11.95996700 10.22860700 11.64496400
  12.43460400 11.08541300 12.63183800
  11.69626600 12.18707700 12.94599400
  18.43198500 14.77682000 15.94765900
  25.88638100 17.69518800 15.12239400
  20.24033800 17.97358000 12.44862900
   5.23278500 19.43176000 13.86898100
  10.61307000 18.37201800 16.88275200
  19.93777800 16.49059000 14.29129800
  23.47149700 16.46147400 15.77145000
  24.99414200 19.11197600 12.88051800
  22.76180300 19.21300400 11.83540200
  20.90000800 13.94398500 18.05551200
  20.20417200 12.47745600 19.71400200
  18.43220700 11.13397600 20.77120700
  16.21131900 11.15963100 19.83283500
  15.65595500 12.46300500 17.88085500
  15.94260800 14.72217900 15.00672700
  13.98550800 12.01359400 14.43450200
  12.40944600 15.31723700 15.82865900
  10.39995000 16.50943900 15.31260800
   7.09344800 17.37594900 13.62590500
   6.58699900 20.86379100 15.91996900
   8.70182500 20.40826100 17.07488600
   8.82902700 13.71681300 12.07821800
   9.08517300 11.80362500 10.80623600
  10.40934800  9.78186600 10.20783700
  12.56735000  9.36819500 11.42139600
  13.36498100 10.87600400 13.13142700
  17.36551600 15.64541800 14.36305300
  20.86272900 16.37241800 14.82468000
  14.99274300 13.48245700 16.26218400
  13.80419500 13.65397100 15.55157200
   9.50197900 16.58636300 14.73496500
  21.93961300 15.38681700 16.56848800
  11.79109700 15.04927400 15.18735500
   8.21736000 15.64863000 13.11260100
  18.19223700 15.53062400 14.85184400
 


--------------------------------------------------------------------------------------------------------


 use seriel FFT for wavefunctions x direction half grid
 k-point  1 :   0.0000 0.0000 0.0000  plane waves:  342683

 maximum and minimum number of plane-waves per node :    342683   342683

 maximum number of plane-waves:    342683
 maximum index in each direction: 
   IXMAX=   54   IYMAX=   54   IZMAX=   54
   IXMIN=    0   IYMIN=  -54   IZMIN=  -54

 WARNING: aliasing errors must be expected set NGX to 218 to avoid them
 WARNING: aliasing errors must be expected set NGY to 218 to avoid them
 WARNING: aliasing errors must be expected set NGZ to 218 to avoid them
 aliasing errors are usually negligible using standard VASP settings
 and one can safely disregard these warnings

 serial   3D FFT for wavefunctions
 parallel 3D FFT for charge:
    minimum data exchange during FFTs selected (reduces bandwidth)


 FFT grid for exact exchange (Hartree Fock) 
  NGX =112; NGY =112; NGZ =112

 use seriel FFT for wavefunctions x direction half grid
 
 Radii for the augmentation spheres in the non-local exchange
 for species   1 augmentation radius   0.944 (default was   0.699)
       energy cutoff for augmentation   2000.0
 for species   2 augmentation radius   1.270 (default was   0.941)
       energy cutoff for augmentation   2000.0
 for species   3 augmentation radius   0.702 (default was   0.520)
       energy cutoff for augmentation   2000.0
 for species   4 augmentation radius   0.957 (default was   0.709)
       energy cutoff for augmentation   2000.0
 for species   5 augmentation radius   0.974 (default was   0.722)
       energy cutoff for augmentation   2000.0
 Maximum index for augmentation-charges in exchange          447
  SETUP_FOCK is finished

 total amount of memory used by VASP on root node  2457718. kBytes
========================================================================

   base      :      30000. kBytes
   nonl-proj :     493464. kBytes
   fftplans  :     338850. kBytes
   grid      :     952390. kBytes
   one-center:        107. kBytes
   HF        :         23. kBytes
   nonlr-proj:        917. kBytes
   wavefun   :     641967. kBytes
 
     INWAV:  cpu time    1.5121: real time    4.9279
 Broyden mixing: mesh for mixing (old mesh)
   NGX =109   NGY =109   NGZ =109
  (NGX  =336   NGY  =336   NGZ  =336)
  gives a total of ****** points

 charge density for first step will be calculated from the start-wavefunctions


--------------------------------------------------------------------------------------------------------


 Maximum index for augmentation-charges         1227 (set IRDMAX)


--------------------------------------------------------------------------------------------------------


 initial charge from wavefunction
 FEWALD executed in parallel
    FEWALD:  cpu time    0.0034: real time    0.0034


----------------------------------------- Iteration    1(   1)  ---------------------------------------


    POTLOK:  cpu time    4.3114: real time    4.3402
    SETDIJ:  cpu time    0.5134: real time    0.5160
    TRIAL :  cpu time  283.2205: real time  284.9212
    CORREC:  cpu time  228.0446: real time  228.9311
    CHARGE:  cpu time    2.8813: real time    2.8923
    --------------------------------------------
      LOOP:  cpu time  519.0912: real time  521.7341

 eigenvalue-minimisations  :     0
 total energy-change (2. order) :-0.5779730E+03  (-0.5876097E+00)
 number of electron     238.0000038 magnetization 
 augmentation part        3.6179131 magnetization 

 Free energy of the ion-electron system (eV)
  ---------------------------------------------------
  alpha Z        PSCENC =         9.62961086
  Ewald energy   TEWEN  =     35309.34229749
  -Hartree energ DENC   =    -43460.12255222
  -exchange      EXHF   =       651.80608143
  -V(xc)+E(xc)   XCENC  =       640.20771721
  PAW double counting   =     22609.74149838   -22637.07883522
  entropy T*S    EENTRO =        -0.00000000
  eigenvalues    EBANDS =     -3572.09849243
  atomic energy  EATOM  =      9870.59969572
  ---------------------------------------------------
  free energy    TOTEN  =      -577.97297879 eV

  energy without entropy =     -577.97297879  energy(sigma->0) =     -577.97297879
  exchange ACFDT corr.  =         0.00000000  see jH, gK, PRB 81, 115126


--------------------------------------------------------------------------------------------------------




----------------------------------------- Iteration    1(   2)  ---------------------------------------


    POTLOK:  cpu time    3.3251: real time    3.3386
    SETDIJ:  cpu time    0.4776: real time    0.4790
    TRIAL :  cpu time  259.4010: real time  260.4296
    CORREC:  cpu time  229.6914: real time  230.5961
    CHARGE:  cpu time    2.9306: real time    2.9425
    --------------------------------------------
      LOOP:  cpu time  495.8259: real time  497.7863

 eigenvalue-minimisations  :     0
 total energy-change (2. order) :-0.5931218E+00  (-0.1176390E+00)
 number of electron     238.0000038 magnetization 
 augmentation part        3.5962862 magnetization 

 Free energy of the ion-electron system (eV)
  ---------------------------------------------------
  alpha Z        PSCENC =         9.62961086
  Ewald energy   TEWEN  =     35309.34229749
  -Hartree energ DENC   =    -43454.67342649
  -exchange      EXHF   =       652.40149040
  -V(xc)+E(xc)   XCENC  =       639.98907910
  PAW double counting   =     23595.17572391   -23622.02298106
  entropy T*S    EENTRO =        -0.00000000
  eigenvalues    EBANDS =     -3579.00759048
  atomic energy  EATOM  =      9870.59969572
  ---------------------------------------------------
  free energy    TOTEN  =      -578.56610054 eV

  energy without entropy =     -578.56610054  energy(sigma->0) =     -578.56610054
  exchange ACFDT corr.  =        -0.00000000  see jH, gK, PRB 81, 115126


--------------------------------------------------------------------------------------------------------




----------------------------------------- Iteration    1(   3)  ---------------------------------------


    POTLOK:  cpu time    3.3260: real time    3.3383
    SETDIJ:  cpu time    0.4760: real time    0.4778
    TRIAL :  cpu time  254.6770: real time  255.6839
    CORREC:  cpu time  229.7484: real time  230.6580
    CHARGE:  cpu time    2.8818: real time    2.8931
    --------------------------------------------
      LOOP:  cpu time  491.1096: real time  493.0527

 eigenvalue-minimisations  :     0
 total energy-change (2. order) :-0.1177003E+00  (-0.4767491E-01)
 number of electron     238.0000038 magnetization 
 augmentation part        3.5936862 magnetization 

 Free energy of the ion-electron system (eV)
  ---------------------------------------------------
  alpha Z        PSCENC =         9.62961086
  Ewald energy   TEWEN  =     35309.34229749
  -Hartree energ DENC   =    -43452.05832123
  -exchange      EXHF   =       652.42155521
  -V(xc)+E(xc)   XCENC  =       639.79786132
  PAW double counting   =     23971.80698470   -23998.50860616
  entropy T*S    EENTRO =        -0.00000000
  eigenvalues    EBANDS =     -3581.71487876
  atomic energy  EATOM  =      9870.59969572
  ---------------------------------------------------
  free energy    TOTEN  =      -578.68380085 eV

  energy without entropy =     -578.68380085  energy(sigma->0) =     -578.68380085
  exchange ACFDT corr.  =         0.00000000  see jH, gK, PRB 81, 115126


--------------------------------------------------------------------------------------------------------




----------------------------------------- Iteration    1(   4)  ---------------------------------------


    POTLOK:  cpu time    3.3486: real time    3.3620
    SETDIJ:  cpu time    0.4761: real time    0.4779
    TRIAL :  cpu time  257.7897: real time  258.8151
    CORREC:  cpu time  229.2368: real time  230.1418
    CHARGE:  cpu time    2.9045: real time    2.9159
    --------------------------------------------
      LOOP:  cpu time  493.7560: real time  495.7144

 eigenvalue-minimisations  :     0
 total energy-change (2. order) :-0.4775737E-01  (-0.1793338E-01)
 number of electron     238.0000038 magnetization 
 augmentation part        3.5999106 magnetization 

 Free energy of the ion-electron system (eV)
  ---------------------------------------------------
  alpha Z        PSCENC =         9.62961086
  Ewald energy   TEWEN  =     35309.34229749
  -Hartree energ DENC   =    -43459.27352641
  -exchange      EXHF   =       652.80850375
  -V(xc)+E(xc)   XCENC  =       640.03813648
  PAW double counting   =     24180.56566658   -24207.19443980
  entropy T*S    EENTRO =        -0.00000000
  eigenvalues    EBANDS =     -3575.24750288
  atomic energy  EATOM  =      9870.59969572
  ---------------------------------------------------
  free energy    TOTEN  =      -578.73155822 eV

  energy without entropy =     -578.73155822  energy(sigma->0) =     -578.73155822
  exchange ACFDT corr.  =         0.00000000  see jH, gK, PRB 81, 115126


--------------------------------------------------------------------------------------------------------




----------------------------------------- Iteration    1(   5)  ---------------------------------------


    POTLOK:  cpu time    3.3428: real time    3.3556
    SETDIJ:  cpu time    0.4764: real time    0.4781
    TRIAL :  cpu time  254.9908: real time  255.9953
    CORREC:  cpu time  232.0693: real time  232.9811
    CHARGE:  cpu time    2.8825: real time    2.8940
    --------------------------------------------
      LOOP:  cpu time  493.7620: real time  495.7049

 eigenvalue-minimisations  :     0
 total energy-change (2. order) :-0.1796983E-01  (-0.9104099E-02)
 number of electron     238.0000038 magnetization 
 augmentation part        3.6029088 magnetization 

 Free energy of the ion-electron system (eV)
  ---------------------------------------------------
  alpha Z        PSCENC =         9.62961086
  Ewald energy   TEWEN  =     35309.34229749
  -Hartree energ DENC   =    -43460.77260794
  -exchange      EXHF   =       652.98273277
  -V(xc)+E(xc)   XCENC  =       640.14740921
  PAW double counting   =     24231.53604064   -24258.17986957
  entropy T*S    EENTRO =        -0.00000000
  eigenvalues    EBANDS =     -3574.03483722
  atomic energy  EATOM  =      9870.59969572
  ---------------------------------------------------
  free energy    TOTEN  =      -578.74952805 eV

  energy without entropy =     -578.74952805  energy(sigma->0) =     -578.74952805
  exchange ACFDT corr.  =        -0.00000000  see jH, gK, PRB 81, 115126


--------------------------------------------------------------------------------------------------------




----------------------------------------- Iteration    1(   6)  ---------------------------------------


    POTLOK:  cpu time    3.2817: real time    3.2949
    SETDIJ:  cpu time    0.4770: real time    0.4783
    TRIAL :  cpu time  255.1737: real time  256.1803
    CORREC:  cpu time  229.6118: real time  230.5196
    CHARGE:  cpu time    2.8799: real time    2.8910
    --------------------------------------------
      LOOP:  cpu time  491.4245: real time  493.3659

 eigenvalue-minimisations  :     0
 total energy-change (2. order) :-0.9115629E-02  (-0.4138434E-02)
 number of electron     238.0000038 magnetization 
 augmentation part        3.6051627 magnetization 

 Free energy of the ion-electron system (eV)
  ---------------------------------------------------
  alpha Z        PSCENC =         9.62961086
  Ewald energy   TEWEN  =     35309.34229749
  -Hartree energ DENC   =    -43459.07377233
  -exchange      EXHF   =       652.98482427
  -V(xc)+E(xc)   XCENC  =       640.12467431
  PAW double counting   =     24212.61821477   -24239.28994155
  entropy T*S    EENTRO =        -0.00000000
  eigenvalues    EBANDS =     -3575.69424722
  atomic energy  EATOM  =      9870.59969572
  ---------------------------------------------------
  free energy    TOTEN  =      -578.75864368 eV

  energy without entropy =     -578.75864368  energy(sigma->0) =     -578.75864368
  exchange ACFDT corr.  =        -0.00000000  see jH, gK, PRB 81, 115126


--------------------------------------------------------------------------------------------------------




----------------------------------------- Iteration    1(   7)  ---------------------------------------


    POTLOK:  cpu time    3.2828: real time    3.2949
    SETDIJ:  cpu time    0.4759: real time    0.4778
    TRIAL :  cpu time  257.7230: real time  258.7352
    CORREC:  cpu time  229.6752: real time  230.5805
    CHARGE:  cpu time    2.9329: real time    2.9443
    --------------------------------------------
      LOOP:  cpu time  494.0902: real time  496.0342

 eigenvalue-minimisations  :     0
 total energy-change (2. order) :-0.4144228E-02  (-0.1660987E-02)
 number of electron     238.0000038 magnetization 
 augmentation part        3.6073913 magnetization 

 Free energy of the ion-electron system (eV)
  ---------------------------------------------------
  alpha Z        PSCENC =         9.62961086
  Ewald energy   TEWEN  =     35309.34229749
  -Hartree energ DENC   =    -43459.66981338
  -exchange      EXHF   =       653.00088676
  -V(xc)+E(xc)   XCENC  =       640.13341470
  PAW double counting   =     24169.75524446   -24196.44221092
  entropy T*S    EENTRO =        -0.00000000
  eigenvalues    EBANDS =     -3575.11191358
  atomic energy  EATOM  =      9870.59969572
  ---------------------------------------------------
  free energy    TOTEN  =      -578.76278790 eV

  energy without entropy =     -578.76278790  energy(sigma->0) =     -578.76278790
  exchange ACFDT corr.  =         0.00000000  see jH, gK, PRB 81, 115126


--------------------------------------------------------------------------------------------------------




----------------------------------------- Iteration    1(   8)  ---------------------------------------


    POTLOK:  cpu time    3.2839: real time    3.2968
    SETDIJ:  cpu time    0.4760: real time    0.4778
    TRIAL :  cpu time  254.5910: real time  255.5900
    CORREC:  cpu time  231.7416: real time  232.6600
    CHARGE:  cpu time    2.9852: real time    2.9968
    --------------------------------------------
      LOOP:  cpu time  493.0781: real time  495.0231

 eigenvalue-minimisations  :     0
 total energy-change (2. order) :-0.1662271E-02  (-0.6222916E-03)
 number of electron     238.0000038 magnetization 
 augmentation part        3.6075568 magnetization 

 Free energy of the ion-electron system (eV)
  ---------------------------------------------------
  alpha Z        PSCENC =         9.62961086
  Ewald energy   TEWEN  =     35309.34229749
  -Hartree energ DENC   =    -43460.22598019
  -exchange      EXHF   =       653.01452352
  -V(xc)+E(xc)   XCENC  =       640.14651379
  PAW double counting   =     24138.52812191   -24165.22602540
  entropy T*S    EENTRO =        -0.00000000
  eigenvalues    EBANDS =     -3574.57320787
  atomic energy  EATOM  =      9870.59969572
  ---------------------------------------------------
  free energy    TOTEN  =      -578.76445017 eV

  energy without entropy =     -578.76445017  energy(sigma->0) =     -578.76445017
  exchange ACFDT corr.  =         0.00000000  see jH, gK, PRB 81, 115126


--------------------------------------------------------------------------------------------------------




----------------------------------------- Iteration    1(   9)  ---------------------------------------


    POTLOK:  cpu time    3.3937: real time    3.4069
    SETDIJ:  cpu time    0.4756: real time    0.4773
    TRIAL :  cpu time  255.2878: real time  256.2909
    CORREC:  cpu time  229.3690: real time  230.2700
    CHARGE:  cpu time    2.9322: real time    2.9437
    --------------------------------------------
      LOOP:  cpu time  491.4585: real time  493.3895

 eigenvalue-minimisations  :     0
 total energy-change (2. order) :-0.6226110E-03  (-0.2321740E-03)
 number of electron     238.0000038 magnetization 
 augmentation part        3.6074760 magnetization 

 Free energy of the ion-electron system (eV)
  ---------------------------------------------------
  alpha Z        PSCENC =         9.62961086
  Ewald energy   TEWEN  =     35309.34229749
  -Hartree energ DENC   =    -43459.89829062
  -exchange      EXHF   =       653.00889732
  -V(xc)+E(xc)   XCENC  =       640.14087816
  PAW double counting   =     24123.98433257   -24150.68756982
  entropy T*S    EENTRO =        -0.00000000
  eigenvalues    EBANDS =     -3574.88492447
  atomic energy  EATOM  =      9870.59969572
  ---------------------------------------------------
  free energy    TOTEN  =      -578.76507279 eV

  energy without entropy =     -578.76507279  energy(sigma->0) =     -578.76507279
  exchange ACFDT corr.  =         0.00000000  see jH, gK, PRB 81, 115126


--------------------------------------------------------------------------------------------------------




----------------------------------------- Iteration    1(  10)  ---------------------------------------


    POTLOK:  cpu time    3.2825: real time    3.2958
    SETDIJ:  cpu time    0.4766: real time    0.4780
    TRIAL :  cpu time  255.1637: real time  256.1659
    CORREC:  cpu time  231.9492: real time  232.8604
    CHARGE:  cpu time    2.8779: real time    2.8890
    --------------------------------------------
      LOOP:  cpu time  493.7502: real time  495.6909

 eigenvalue-minimisations  :     0
 total energy-change (2. order) :-0.2321865E-03  (-0.1020653E-03)
 number of electron     238.0000038 magnetization 
 augmentation part        3.6076482 magnetization 

 Free energy of the ion-electron system (eV)
  ---------------------------------------------------
  alpha Z        PSCENC =         9.62961086
  Ewald energy   TEWEN  =     35309.34229749
  -Hartree energ DENC   =    -43459.86117556
  -exchange      EXHF   =       653.00826191
  -V(xc)+E(xc)   XCENC  =       640.13968212
  PAW double counting   =     24121.31453361   -24148.01816459
  entropy T*S    EENTRO =        -0.00000000
  eigenvalues    EBANDS =     -3574.92004653
  atomic energy  EATOM  =      9870.59969572
  ---------------------------------------------------
  free energy    TOTEN  =      -578.76530497 eV

  energy without entropy =     -578.76530497  energy(sigma->0) =     -578.76530497
  exchange ACFDT corr.  =         0.00000000  see jH, gK, PRB 81, 115126


--------------------------------------------------------------------------------------------------------




----------------------------------------- Iteration    1(  11)  ---------------------------------------


    POTLOK:  cpu time    3.2804: real time    3.2925
    SETDIJ:  cpu time    0.4811: real time    0.4832
    TRIAL :  cpu time  254.7967: real time  255.7461
    CORREC:  cpu time  229.6565: real time  230.4736
    CHARGE:  cpu time    2.8853: real time    2.8952
    --------------------------------------------
      LOOP:  cpu time  491.1003: real time  492.8921

 eigenvalue-minimisations  :     0
 total energy-change (2. order) :-0.1020173E-03  (-0.5310100E-04)
 number of electron     238.0000038 magnetization 
 augmentation part        3.6075969 magnetization 

 Free energy of the ion-electron system (eV)
  ---------------------------------------------------
  alpha Z        PSCENC =         9.62961086
  Ewald energy   TEWEN  =     35309.34229749
  -Hartree energ DENC   =    -43460.00318122
  -exchange      EXHF   =       653.01105365
  -V(xc)+E(xc)   XCENC  =       640.14192455
  PAW double counting   =     24124.30415305   -24151.00681596
  entropy T*S    EENTRO =        -0.00000000
  eigenvalues    EBANDS =     -3574.78414513
  atomic energy  EATOM  =      9870.59969572
  ---------------------------------------------------
  free energy    TOTEN  =      -578.76540699 eV

  energy without entropy =     -578.76540699  energy(sigma->0) =     -578.76540699
  exchange ACFDT corr.  =         0.00000000  see jH, gK, PRB 81, 115126


--------------------------------------------------------------------------------------------------------




----------------------------------------- Iteration    1(  12)  ---------------------------------------


    POTLOK:  cpu time    3.2796: real time    3.2921
    SETDIJ:  cpu time    0.4766: real time    0.4782
    TRIAL :  cpu time  257.5606: real time  258.5379
    CORREC:  cpu time  229.6019: real time  230.4769
    CHARGE:  cpu time    2.9287: real time    2.9399
    --------------------------------------------
      LOOP:  cpu time  493.8476: real time  495.7257

 eigenvalue-minimisations  :     0
 total energy-change (2. order) :-0.5282508E-04  (-0.2830186E-04)
 number of electron     238.0000038 magnetization 
 augmentation part        3.6074883 magnetization 

 Free energy of the ion-electron system (eV)
  ---------------------------------------------------
  alpha Z        PSCENC =         9.62961086
  Ewald energy   TEWEN  =     35309.34229749
  -Hartree energ DENC   =    -43459.96497614
  -exchange      EXHF   =       653.01014262
  -V(xc)+E(xc)   XCENC  =       640.14062079
  PAW double counting   =     24128.85306159   -24155.55463860
  entropy T*S    EENTRO =        -0.00000000
  eigenvalues    EBANDS =     -3574.82127414
  atomic energy  EATOM  =      9870.59969572
  ---------------------------------------------------
  free energy    TOTEN  =      -578.76545981 eV

  energy without entropy =     -578.76545981  energy(sigma->0) =     -578.76545981
  exchange ACFDT corr.  =        -0.00000000  see jH, gK, PRB 81, 115126


--------------------------------------------------------------------------------------------------------




----------------------------------------- Iteration    1(  13)  ---------------------------------------


    POTLOK:  cpu time    3.2778: real time    3.2895
    SETDIJ:  cpu time    0.4762: real time    0.4774
    TRIAL :  cpu time  254.5376: real time  255.5044
    CORREC:  cpu time  232.0146: real time  232.8942
    CHARGE:  cpu time    2.8835: real time    2.8941
    --------------------------------------------
      LOOP:  cpu time  493.1900: real time  495.0614

 eigenvalue-minimisations  :     0
 total energy-change (2. order) :-0.2786945E-04  (-0.1359545E-04)
 number of electron     238.0000038 magnetization 
 augmentation part        3.6074716 magnetization 

 Free energy of the ion-electron system (eV)
  ---------------------------------------------------
  alpha Z        PSCENC =         9.62961086
  Ewald energy   TEWEN  =     35309.34229749
  -Hartree energ DENC   =    -43459.92853697
  -exchange      EXHF   =       653.00963703
  -V(xc)+E(xc)   XCENC  =       640.13979184
  PAW double counting   =     24132.22832174   -24158.92912941
  entropy T*S    EENTRO =        -0.00000000
  eigenvalues    EBANDS =     -3574.85717599
  atomic energy  EATOM  =      9870.59969572
  ---------------------------------------------------
  free energy    TOTEN  =      -578.76548768 eV

  energy without entropy =     -578.76548768  energy(sigma->0) =     -578.76548768
  exchange ACFDT corr.  =        -0.00000000  see jH, gK, PRB 81, 115126


--------------------------------------------------------------------------------------------------------




----------------------------------------- Iteration    1(  14)  ---------------------------------------


    POTLOK:  cpu time    3.2800: real time    3.2924
    SETDIJ:  cpu time    0.4766: real time    0.4779
    TRIAL :  cpu time  255.0135: real time  255.9774
    CORREC:  cpu time  229.3348: real time  230.2008
    CHARGE:  cpu time    2.9344: real time    2.9454
    --------------------------------------------
      LOOP:  cpu time  491.0397: real time  492.8954

 eigenvalue-minimisations  :     0
 total energy-change (2. order) :-0.1333714E-04  (-0.7655948E-05)
 number of electron     238.0000038 magnetization 
 augmentation part        3.6074696 magnetization 

 Free energy of the ion-electron system (eV)
  ---------------------------------------------------
  alpha Z        PSCENC =         9.62961086
  Ewald energy   TEWEN  =     35309.34229749
  -Hartree energ DENC   =    -43459.94362995
  -exchange      EXHF   =       653.01003983
  -V(xc)+E(xc)   XCENC  =       640.14007646
  PAW double counting   =     24133.49890648   -24160.19947371
  entropy T*S    EENTRO =        -0.00000000
  eigenvalues    EBANDS =     -3574.84302420
  atomic energy  EATOM  =      9870.59969572
  ---------------------------------------------------
  free energy    TOTEN  =      -578.76550102 eV

  energy without entropy =     -578.76550102  energy(sigma->0) =     -578.76550102
  exchange ACFDT corr.  =        -0.00000000  see jH, gK, PRB 81, 115126


--------------------------------------------------------------------------------------------------------




----------------------------------------- Iteration    1(  15)  ---------------------------------------


    POTLOK:  cpu time    3.2793: real time    3.2910
    SETDIJ:  cpu time    0.4765: real time    0.4778
    TRIAL :  cpu time  258.7842: real time  259.7723
    CORREC:  cpu time  229.8837: real time  230.7598
    CHARGE:  cpu time    2.8792: real time    2.8902
    --------------------------------------------
      LOOP:  cpu time  495.3032: real time  497.1926

 eigenvalue-minimisations  :     0
 total energy-change (2. order) :-0.7425122E-05  (-0.4477452E-05)
 number of electron     238.0000038 magnetization 
 augmentation part        3.6074408 magnetization 

 Free energy of the ion-electron system (eV)
  ---------------------------------------------------
  alpha Z        PSCENC =         9.62961086
  Ewald energy   TEWEN  =     35309.34229749
  -Hartree energ DENC   =    -43459.95059734
  -exchange      EXHF   =       653.01005605
  -V(xc)+E(xc)   XCENC  =       640.14010365
  PAW double counting   =     24133.39344226   -24160.09404347
  entropy T*S    EENTRO =        -0.00000000
  eigenvalues    EBANDS =     -3574.83607367
  atomic energy  EATOM  =      9870.59969572
  ---------------------------------------------------
  free energy    TOTEN  =      -578.76550845 eV

  energy without entropy =     -578.76550845  energy(sigma->0) =     -578.76550845
  exchange ACFDT corr.  =        -0.00000000  see jH, gK, PRB 81, 115126


--------------------------------------------------------------------------------------------------------




----------------------------------------- Iteration    1(  16)  ---------------------------------------


    POTLOK:  cpu time    3.3122: real time    3.3251
    SETDIJ:  cpu time    0.4759: real time    0.4775
    TRIAL :  cpu time  254.6817: real time  255.6543
    CORREC:  cpu time  229.7515: real time  230.4412
    CHARGE:  cpu time    2.8766: real time    2.8842
    --------------------------------------------
      LOOP:  cpu time  491.0982: real time  492.7831

 eigenvalue-minimisations  :     0
 total energy-change (2. order) :-0.4168551E-05  (-0.2292431E-05)
 number of electron     238.0000038 magnetization 
 augmentation part        3.6074274 magnetization 

 Free energy of the ion-electron system (eV)
  ---------------------------------------------------
  alpha Z        PSCENC =         9.62961086
  Ewald energy   TEWEN  =     35309.34229749
  -Hartree energ DENC   =    -43459.94047589
  -exchange      EXHF   =       653.00972718
  -V(xc)+E(xc)   XCENC  =       640.13979895
  PAW double counting   =     24132.39988393   -24159.10062314
  entropy T*S    EENTRO =        -0.00000000
  eigenvalues    EBANDS =     -3574.84542771
  atomic energy  EATOM  =      9870.59969572
  ---------------------------------------------------
  free energy    TOTEN  =      -578.76551261 eV

  energy without entropy =     -578.76551261  energy(sigma->0) =     -578.76551261
  exchange ACFDT corr.  =        -0.00000000  see jH, gK, PRB 81, 115126


--------------------------------------------------------------------------------------------------------




----------------------------------------- Iteration    1(  17)  ---------------------------------------


    POTLOK:  cpu time    3.2804: real time    3.2893
    SETDIJ:  cpu time    0.4765: real time    0.4774
    TRIAL :  cpu time  257.5890: real time  258.3732
    CORREC:  cpu time  229.5011: real time  230.1813
    CHARGE:  cpu time    2.8788: real time    2.8871
    --------------------------------------------
      LOOP:  cpu time  493.7261: real time  495.2099

 eigenvalue-minimisations  :     0
 total energy-change (2. order) :-0.2048513E-05  (-0.1254336E-05)
 number of electron     238.0000038 magnetization 
 augmentation part        3.6074297 magnetization 

 Free energy of the ion-electron system (eV)
  ---------------------------------------------------
  alpha Z        PSCENC =         9.62961086
  Ewald energy   TEWEN  =     35309.34229749
  -Hartree energ DENC   =    -43459.94220278
  -exchange      EXHF   =       653.00980504
  -V(xc)+E(xc)   XCENC  =       640.13984662
  PAW double counting   =     24131.43267013   -24158.13352764
  entropy T*S    EENTRO =        -0.00000000
  eigenvalues    EBANDS =     -3574.84371010
  atomic energy  EATOM  =      9870.59969572
  ---------------------------------------------------
  free energy    TOTEN  =      -578.76551466 eV

  energy without entropy =     -578.76551466  energy(sigma->0) =     -578.76551466
  exchange ACFDT corr.  =        -0.00000000  see jH, gK, PRB 81, 115126


--------------------------------------------------------------------------------------------------------




----------------------------------------- Iteration    1(  18)  ---------------------------------------


    POTLOK:  cpu time    3.2715: real time    3.2799
    SETDIJ:  cpu time    0.4804: real time    0.4816
    TRIAL :  cpu time  255.3354: real time  256.1044
    CORREC:  cpu time  232.2129: real time  232.9129
    CHARGE:  cpu time    2.8775: real time    2.8855
    --------------------------------------------
      LOOP:  cpu time  494.1780: real time  495.6651

 eigenvalue-minimisations  :     0
 total energy-change (2. order) :-0.1091987E-05  (-0.7764158E-06)
 number of electron     238.0000038 magnetization 
 augmentation part        3.6074382 magnetization 

 Free energy of the ion-electron system (eV)
  ---------------------------------------------------
  alpha Z        PSCENC =         9.62961086
  Ewald energy   TEWEN  =     35309.34229749
  -Hartree energ DENC   =    -43459.94788329
  -exchange      EXHF   =       653.00995847
  -V(xc)+E(xc)   XCENC  =       640.13996131
  PAW double counting   =     24130.82807010   -24157.52901405
  entropy T*S    EENTRO =        -0.00000000
  eigenvalues    EBANDS =     -3574.83821236
  atomic energy  EATOM  =      9870.59969572
  ---------------------------------------------------
  free energy    TOTEN  =      -578.76551575 eV

  energy without entropy =     -578.76551575  energy(sigma->0) =     -578.76551575
  exchange ACFDT corr.  =        -0.00000000  see jH, gK, PRB 81, 115126


--------------------------------------------------------------------------------------------------------




----------------------------------------- Iteration    1(  19)  ---------------------------------------


    POTLOK:  cpu time    3.2770: real time    3.2859
    SETDIJ:  cpu time    0.4765: real time    0.4774
    TRIAL :  cpu time  255.1156: real time  255.8835
    CORREC:  cpu time  229.3189: real time  229.9920
    CHARGE:  cpu time    2.9417: real time    2.9502
    --------------------------------------------
      LOOP:  cpu time  491.1300: real time  492.5907

 eigenvalue-minimisations  :     0
 total energy-change (2. order) :-0.6145601E-06  (-0.5554108E-06)
 number of electron     238.0000038 magnetization 
 augmentation part        3.6074472 magnetization 

 Free energy of the ion-electron system (eV)
  ---------------------------------------------------
  alpha Z        PSCENC =         9.62961086
  Ewald energy   TEWEN  =     35309.34229749
  -Hartree energ DENC   =    -43459.95052621
  -exchange      EXHF   =       653.01000973
  -V(xc)+E(xc)   XCENC  =       640.13997991
  PAW double counting   =     24130.58551216   -24157.28650789
  entropy T*S    EENTRO =        -0.00000000
  eigenvalues    EBANDS =     -3574.83558813
  atomic energy  EATOM  =      9870.59969572
  ---------------------------------------------------
  free energy    TOTEN  =      -578.76551637 eV

  energy without entropy =     -578.76551637  energy(sigma->0) =     -578.76551637
  exchange ACFDT corr.  =        -0.00000000  see jH, gK, PRB 81, 115126


--------------------------------------------------------------------------------------------------------


  average scaling for gradient   0.9665


 average (electrostatic) potential at core
  the test charge radii are     0.6991  0.9406  0.5201  0.7089  0.7215
  (the norm of the test charge is              1.0000)
       1 -57.4194       2 -56.2712       3 -54.6509       4 -56.0208       5 -54.8323
       6 -55.0321       7 -56.2842       8 -55.4369       9 -55.2149      10 -54.9887
      11 -54.8082      12 -54.6093      13 -54.6830      14 -54.3762      15 -55.1043
      16 -55.2424      17 -56.1938      18 -56.0991      19 -55.1762      20 -57.1495
      21 -55.3436      22 -57.3151      23 -56.2513      24 -54.6741      25 -56.0352
      26 -54.8216      27 -55.0186      28 -56.2588      29 -55.1388      30 -55.0416
      31 -54.9453      32 -54.8056      33 -54.9270      34 -54.8326      35 -55.2687
      36 -57.0673      37 -96.4780      38 -97.0320      39 -96.5687      40 -97.0371
      41 -39.4187      42 -37.2983      43 -37.7993      44 -37.9746      45 -37.7803
      46 -37.7764      47 -37.6934      48 -37.6270      49 -37.2759      50 -38.4487
      51 -38.4945      52 -41.9634      53 -39.2785      54 -37.2339      55 -37.7385
      56 -37.8894      57 -37.6525      58 -37.9989      59 -37.6545      60 -37.8533
      61 -38.1115      62 -41.8016      63 -69.3550      64 -69.0444      65 -68.9428
      66 -69.1841      67 -72.5470      68 -75.1192      69 -72.5256      70 -75.4544
 
 
 
 E-fermi :  -5.9882     XC(G=0):  -0.2842     alpha+bet : -0.2080


 k-point     1 :       0.0000    0.0000    0.0000
  band No.  band energies     occupation 
      1     -30.6494      2.00000
      2     -30.4488      2.00000
      3     -28.6674      2.00000
      4     -28.6422      2.00000
      5     -28.3678      2.00000
      6     -26.4440      2.00000
      7     -26.3966      2.00000
      8     -25.6270      2.00000
      9     -25.4645      2.00000
     10     -25.0942      2.00000
     11     -25.0894      2.00000
     12     -24.6849      2.00000
     13     -24.6058      2.00000
     14     -24.5281      2.00000
     15     -23.8331      2.00000
     16     -23.7813      2.00000
     17     -23.2496      2.00000
     18     -23.1985      2.00000
     19     -22.8507      2.00000
     20     -22.3933      2.00000
     21     -21.9366      2.00000
     22     -21.8906      2.00000
     23     -21.4543      2.00000
     24     -21.4374      2.00000
     25     -21.0003      2.00000
     26     -20.7595      2.00000
     27     -20.4264      2.00000
     28     -20.3604      2.00000
     29     -19.6747      2.00000
     30     -19.1867      2.00000
     31     -18.9880      2.00000
     32     -18.8604      2.00000
     33     -18.4757      2.00000
     34     -18.0370      2.00000
     35     -18.0130      2.00000
     36     -17.8084      2.00000
     37     -17.1949      2.00000
     38     -17.1621      2.00000
     39     -16.9359      2.00000
     40     -16.7231      2.00000
     41     -16.6398      2.00000
     42     -16.4178      2.00000
     43     -16.3177      2.00000
     44     -16.0169      2.00000
     45     -15.8016      2.00000
     46     -15.4592      2.00000
     47     -15.3613      2.00000
     48     -15.0308      2.00000
     49     -14.8469      2.00000
     50     -14.6608      2.00000
     51     -14.3430      2.00000
     52     -14.0094      2.00000
     53     -13.9625      2.00000
     54     -13.9379      2.00000
     55     -13.8532      2.00000
     56     -13.5771      2.00000
     57     -13.4987      2.00000
     58     -13.3647      2.00000
     59     -13.3169      2.00000
     60     -13.1732      2.00000
     61     -13.1150      2.00000
     62     -13.0065      2.00000
     63     -12.9792      2.00000
     64     -12.7328      2.00000
     65     -12.7143      2.00000
     66     -12.4995      2.00000
     67     -12.4027      2.00000
     68     -12.3772      2.00000
     69     -12.3038      2.00000
     70     -12.2083      2.00000
     71     -12.1411      2.00000
     72     -12.0375      2.00000
     73     -11.8294      2.00000
     74     -11.7775      2.00000
     75     -11.7022      2.00000
     76     -11.4972      2.00000
     77     -11.4646      2.00000
     78     -11.4166      2.00000
     79     -11.3852      2.00000
     80     -11.3702      2.00000
     81     -11.3458      2.00000
     82     -11.0965      2.00000
     83     -11.0737      2.00000
     84     -10.9708      2.00000
     85     -10.8753      2.00000
     86     -10.5107      2.00000
     87     -10.4981      2.00000
     88     -10.4592      2.00000
     89     -10.4566      2.00000
     90     -10.4493      2.00000
     91     -10.3770      2.00000
     92     -10.0787      2.00000
     93     -10.0211      2.00000
     94      -9.7773      2.00000
     95      -9.7171      2.00000
     96      -9.6043      2.00000
     97      -9.5987      2.00000
     98      -9.3033      2.00000
     99      -9.2986      2.00000
    100      -9.1464      2.00000
    101      -9.0957      2.00000
    102      -8.8978      2.00000
    103      -8.8448      2.00000
    104      -8.7820      2.00000
    105      -8.7574      2.00000
    106      -8.5918      2.00000
    107      -8.5292      2.00000
    108      -7.8082      2.00000
    109      -7.3363      2.00000
    110      -7.3235      2.00000
    111      -7.2988      2.00000
    112      -7.2745      2.00000
    113      -7.2532      2.00000
    114      -7.1434      2.00000
    115      -7.1130      2.00000
    116      -6.6578      2.00000
    117      -6.6502      2.00000
    118      -6.2800      2.00000
    119      -6.2282      2.00000
    120      -2.3768      0.00000
    121      -2.2390      0.00000
    122      -1.3778      0.00000
    123      -1.2316      0.00000
    124      -0.8104      0.00000
    125      -0.6558      0.00000
    126      -0.6209      0.00000
    127      -0.6115      0.00000
    128      -0.4852      0.00000
    129      -0.2471      0.00000
    130      -0.2139      0.00000
    131      -0.1681      0.00000
    132      -0.1265      0.00000
    133       0.0224      0.00000
    134       0.0387      0.00000
    135       0.0601      0.00000
    136       0.1538      0.00000
    137       0.2125      0.00000
    138       0.2515      0.00000
    139       0.2734      0.00000
    140       0.2885      0.00000
    141       0.2925      0.00000
    142       0.3235      0.00000
    143       0.3581      0.00000
    144       0.3748      0.00000
    145       0.3993      0.00000
    146       0.4161      0.00000
    147       0.4327      0.00000
    148       0.4416      0.00000
    149       0.4712      0.00000
    150       0.4774      0.00000
    151       0.4878      0.00000
    152       0.5565      0.00000
    153       0.5711      0.00000
    154       0.5930      0.00000
    155       0.6029      0.00000
    156       0.7048      0.00000


--------------------------------------------------------------------------------------------------------


 soft charge-density along one line, spin component           1
         0         1         2         3         4         5         6         7         8         9
 total charge-density along one line
 
 pseudopotential strength for first ion, spin component:           1
 10.121  13.461   0.005  -0.006   0.002  -0.013   0.015  -0.004
 13.461  17.902   0.007  -0.008   0.002  -0.017   0.020  -0.006
  0.005   0.007  -4.338   0.008  -0.002   8.469  -0.015   0.004
 -0.006  -0.008   0.008  -4.344  -0.005  -0.015   8.479   0.008
  0.002   0.002  -0.002  -0.005  -4.350   0.004   0.008   8.490
 -0.013  -0.017   8.469  -0.015   0.004 -18.657   0.026  -0.008
  0.015   0.020  -0.015   8.479   0.008   0.026 -18.676  -0.014
 -0.004  -0.006   0.004   0.008   8.490  -0.008  -0.014 -18.696
 total augmentation occupancy for first ion, spin component:           1
  8.932  -4.201   0.064   0.059   0.357   0.016   0.017   0.093
 -4.201   2.087  -0.075  -0.008  -0.263  -0.011  -0.011  -0.061
  0.064  -0.075   1.325  -0.301   0.128   0.114  -0.050   0.014
  0.059  -0.008  -0.301   1.508   0.123  -0.050   0.148   0.023
  0.357  -0.263   0.128   0.123   1.776   0.014   0.023   0.173
  0.016  -0.011   0.114  -0.050   0.014   0.011  -0.007   0.001
  0.017  -0.011  -0.050   0.148   0.023  -0.007   0.017   0.005
  0.093  -0.061   0.014   0.023   0.173   0.001   0.005   0.020


------------------------ aborting loop because EDIFF is reached ----------------------------------------


    FORLOC:  cpu time    1.9222: real time    1.9271
    FORHF :  cpu time  210.1448: real time  210.7890
    FORNL :  cpu time   34.2358: real time   34.3391
    FORCOR:  cpu time    4.6730: real time    4.6856
    OFIELD:  cpu time    0.0088: real time    0.0088

  Hirshfeld charges:
            ion         q(e)     
   ------------------------------
      1     C           0.164
      2     C           0.047
      3     C          -0.064
      4     C           0.023
      5     C          -0.060
      6     C          -0.054
      7     C           0.007
      8     C          -0.030
      9     C          -0.001
     10     C          -0.008
     11     C          -0.031
     12     C          -0.050
     13     C          -0.034
     14     C          -0.054
     15     C           0.000
     16     C          -0.035
     17     C           0.021
     18     C           0.026
     19     C          -0.034
     20     C           0.107
     21     C          -0.029
     22     C           0.161
     23     C           0.048
     24     C          -0.062
     25     C           0.021
     26     C          -0.061
     27     C          -0.054
     28     C           0.005
     29     C          -0.009
     30     C          -0.008
     31     C          -0.027
     32     C          -0.048
     33     C          -0.035
     34     C          -0.047
     35     C           0.001
     36     C           0.092
     37     Cl         -0.029
     38     Cl         -0.014
     39     Cl         -0.022
     40     Cl         -0.012
     41     H           0.090
     42     H           0.039
     43     H           0.056
     44     H           0.054
     45     H           0.058
     46     H           0.055
     47     H           0.053
     48     H           0.052
     49     H           0.028
     50     H           0.027
     51     H           0.046
     52     H           0.190
     53     H           0.084
     54     H           0.040
     55     H           0.053
     56     H           0.054
     57     H           0.055
     58     H           0.061
     59     H           0.052
     60     H           0.052
     61     H           0.048
     62     H           0.187
     63     N          -0.094
     64     N          -0.077
     65     N          -0.097
     66     N          -0.098
     67     O          -0.267
     68     O          -0.171
     69     O          -0.272
     70     O          -0.167

  Atomic reference data used in the T-S method for vdW correction:
            C6at              R0at           ALPHAat      REFSTATE
            (au)              (au)            (au)                
   ---------------------------------------------------------------
   C          46.600          3.590         12.000         0
   Cl         94.600          3.704         15.000         0
   H           6.500          3.099          4.500         0
   N          24.200          3.345          7.400         0
   O          15.600          3.194          5.400         0

  Tkatchenko/Scheffler method for vdW energy calculation
  ---------------------------------------------------------------------------------------------

  Parameters of vdW forcefield:
            C6ts              R0ts           ALPHAts        RELVOL
            (au)              (au)            (au)                
   ---------------------------------------------------------------
   C          32.663          3.384         10.046          0.837
   C          33.603          3.400         10.190          0.849
   C          32.900          3.388         10.083          0.840
   C          34.780          3.420         10.367          0.864
   C          31.141          3.357          9.810          0.817
   C          31.171          3.358          9.814          0.818
   C          34.835          3.421         10.375          0.865
   C          32.655          3.384         10.045          0.837
   C          30.880          3.352          9.768          0.814
   C          32.335          3.378          9.996          0.833
   C          30.025          3.337          9.632          0.803
   C          29.631          3.329          9.569          0.797
   C          29.881          3.334          9.609          0.801
   C          31.564          3.365          9.876          0.823
   C          33.044          3.391         10.105          0.842
   C          32.755          3.386         10.061          0.838
   C          30.978          3.354          9.784          0.815
   C          30.654          3.348          9.733          0.811
   C          32.829          3.387         10.072          0.839
   C          32.631          3.383         10.042          0.837
   C          32.744          3.385         10.059          0.838
   C          32.703          3.385         10.053          0.838
   C          33.476          3.398         10.171          0.848
   C          32.862          3.387         10.077          0.840
   C          34.793          3.420         10.369          0.864
   C          31.459          3.363          9.860          0.822
   C          31.576          3.365          9.878          0.823
   C          34.821          3.420         10.373          0.864
   C          31.007          3.355          9.789          0.816
   C          32.287          3.377          9.988          0.832
   C          29.786          3.332          9.594          0.799
   C          29.789          3.332          9.594          0.800
   C          29.746          3.332          9.587          0.799
   C          30.456          3.345          9.701          0.808
   C          32.656          3.384         10.045          0.837
   C          32.189          3.376          9.973          0.831
   Cl         85.117          3.639         14.228          0.949
   Cl         82.912          3.623         14.043          0.936
   Cl         84.536          3.635         14.180          0.945
   Cl         82.427          3.620         14.002          0.933
   H           3.987          2.857          3.524          0.783
   H           3.644          2.814          3.370          0.749
   H           2.621          2.664          2.858          0.635
   H           2.610          2.662          2.851          0.634
   H           2.958          2.718          3.036          0.675
   H           2.389          2.623          2.728          0.606
   H           2.258          2.598          2.652          0.589
   H           2.302          2.607          2.678          0.595
   H           3.260          2.762          3.187          0.708
   H           2.961          2.718          3.037          0.675
   H           2.824          2.697          2.966          0.659
   H           2.912          2.711          3.012          0.669
   H           3.965          2.854          3.515          0.781
   H           3.618          2.811          3.357          0.746
   H           2.693          2.676          2.896          0.644
   H           2.711          2.679          2.906          0.646
   H           2.998          2.724          3.056          0.679
   H           2.343          2.614          2.702          0.600
   H           2.278          2.602          2.664          0.592
   H           2.285          2.604          2.668          0.593
   H           2.659          2.670          2.878          0.640
   H           2.416          2.628          2.743          0.610
   N          18.180          3.189          6.414          0.867
   N          18.506          3.199          6.471          0.874
   N          18.816          3.207          6.525          0.882
   N          18.198          3.190          6.417          0.867
   O          13.700          3.125          5.061          0.937
   O          11.804          3.049          4.697          0.870
   O          13.787          3.129          5.076          0.940
   O          11.631          3.041          4.663          0.863

  IVDW =   2
  VDW_RADIUS =    50.000 A
  VDW_IDAMPF =  0
  VDW_S6 =     1.000
  VDW_SR =     0.940
  VDW_D =    20.000
  LVDW_ONECELL = F F F
  LVDW_SAMETYPE T T T T T
  LVDW_EWALD = F

  Number of pair interactions contributing to vdW energy:   50352
  Edisp (eV):   -1.08994
    FORVDW:  cpu time   16.9155: real time   16.9562

 VOLUME and BASIS-vectors are now :
 -----------------------------------------------------------------------------
  energy-cutoff  :      500.00
  volume of cell :    27000.00
      direct lattice vectors                 reciprocal lattice vectors
    30.000000000  0.000000000  0.000000000     0.033333333  0.000000000  0.000000000
     0.000000000 30.000000000  0.000000000     0.000000000  0.033333333  0.000000000
     0.000000000  0.000000000 30.000000000     0.000000000  0.000000000  0.033333333

  length of vectors
    30.000000000 30.000000000 30.000000000     0.033333333  0.033333333  0.033333333


 FORCES acting on ions:
    Electron-Ion                     Ewald-Force                    Non-Local-Force
 -----------------------------------------------------------------------------------------------
   -.247E+02 0.730E+01 -.196E+02   0.255E+02 -.933E+01 0.226E+02   0.388E+01 0.233E+01 -.150E+01
   -.587E+02 -.497E+02 0.406E+02   0.618E+02 0.516E+02 -.418E+02   -.463E+01 -.198E+01 0.729E+00
   -.158E+03 0.165E+02 -.906E+02   0.160E+03 -.188E+02 0.948E+02   0.461E+00 0.250E+01 -.313E+01
   -.188E+03 -.439E+02 -.254E+02   0.183E+03 0.440E+02 0.233E+02   0.482E+01 -.355E+00 0.244E+01
   -.188E+03 -.165E+03 0.135E+03   0.191E+03 0.166E+03 -.136E+03   -.130E+01 -.100E+01 0.797E+00
   -.593E+02 -.178E+03 0.209E+03   0.597E+02 0.179E+03 -.211E+03   -.105E+01 -.939E+00 0.817E+00
   0.198E+02 -.108E+03 0.150E+03   -.151E+02 0.107E+03 -.148E+03   -.524E+01 -.276E+00 -.177E+01
   -.968E+02 0.209E+01 -.408E+02   0.986E+02 -.269E+01 0.424E+02   -.636E+00 0.488E+00 -.929E+00
   -.202E+03 0.537E+02 -.153E+03   0.205E+03 -.538E+02 0.154E+03   -.201E+01 0.712E+00 -.176E+01
   -.107E+03 0.722E+02 -.138E+03   0.107E+03 -.723E+02 0.138E+03   0.613E+00 0.331E+00 -.195E+00
   -.190E+03 0.103E+03 -.212E+03   0.191E+03 -.103E+03 0.214E+03   -.980E+00 -.443E+00 0.185E+00
   -.599E+02 0.181E+03 -.263E+03   0.612E+02 -.181E+03 0.264E+03   -.114E+00 0.571E+00 -.797E+00
   0.114E+03 0.188E+03 -.201E+03   -.116E+03 -.188E+03 0.200E+03   0.214E+00 0.330E+00 -.336E+00
   0.137E+03 0.130E+03 -.116E+03   -.140E+03 -.131E+03 0.116E+03   0.252E+01 -.451E+00 0.157E+01
   0.133E+02 0.714E+02 -.881E+02   -.143E+02 -.723E+02 0.888E+02   0.221E+00 0.674E-01 0.188E-01
   0.363E+02 0.146E+02 -.293E+01   -.365E+02 -.149E+02 0.346E+01   0.558E-01 0.822E+00 -.978E+00
   -.213E+02 -.602E+02 0.660E+02   0.249E+02 0.631E+02 -.684E+02   -.248E+01 -.143E+01 0.887E+00
   -.521E+02 0.193E+03 0.491E+02   0.515E+02 -.196E+03 -.521E+02   0.112E+01 0.332E+01 0.333E+01
   -.317E+02 0.955E+02 0.165E+02   0.314E+02 -.950E+02 -.162E+02   0.577E+00 0.111E+01 0.126E+01
   0.376E+02 0.221E+02 0.153E+02   -.390E+02 -.287E+02 -.214E+02   0.327E+01 0.514E+01 0.625E+01
   0.924E+02 0.440E+01 0.532E+02   -.928E+02 -.524E+01 -.541E+02   0.662E+00 0.489E+00 0.821E+00
   0.433E+02 0.108E+02 0.290E+02   -.444E+02 -.127E+02 -.313E+02   -.303E+01 0.410E+01 0.961E+00
   0.541E+02 -.660E+02 -.178E+02   -.562E+02 0.682E+02 0.180E+02   0.348E+01 -.357E+01 -.251E+00
   0.161E+03 -.168E+02 0.103E+03   -.164E+03 0.146E+02 -.106E+03   0.210E+00 0.245E+01 0.201E+01
   0.173E+03 -.104E+03 0.488E+02   -.168E+03 0.103E+03 -.462E+02   -.430E+01 0.766E+00 -.248E+01
   0.133E+03 -.243E+03 -.882E+02   -.134E+03 0.245E+03 0.888E+02   0.679E+00 -.114E+01 -.394E+00
   0.120E+02 -.228E+03 -.169E+03   -.120E+02 0.230E+03 0.171E+03   0.333E+00 -.124E+01 -.710E+00
   -.374E+02 -.119E+03 -.125E+03   0.331E+02 0.120E+03 0.123E+03   0.480E+01 -.116E+01 0.252E+01
   0.200E+03 0.409E+02 0.161E+03   -.202E+03 -.403E+02 -.163E+03   0.178E+01 0.600E+00 0.171E+01
   0.113E+03 0.852E+02 0.131E+03   -.114E+03 -.856E+02 -.132E+03   -.339E+00 0.607E+00 0.200E+00
   0.197E+03 0.977E+02 0.205E+03   -.198E+03 -.981E+02 -.206E+03   0.141E+01 -.160E+00 0.863E+00
   0.824E+02 0.220E+03 0.216E+03   -.840E+02 -.221E+03 -.218E+03   -.157E+00 0.628E+00 0.358E+00
   -.769E+02 0.263E+03 0.131E+03   0.785E+02 -.263E+03 -.130E+03   0.121E+00 0.629E+00 0.556E+00
   -.138E+03 0.210E+03 0.389E+02   0.140E+03 -.212E+03 -.395E+02   -.994E+00 -.652E-01 -.779E+00
   -.146E+02 0.121E+03 0.594E+02   0.150E+02 -.122E+03 -.593E+02   0.339E+00 0.675E+00 0.668E+00
   -.136E+02 -.484E+01 0.388E+01   0.126E+02 0.269E+00 0.190E+01   -.272E+01 0.419E+01 -.679E+01
   -.386E+03 -.429E+02 -.123E+03   0.392E+03 0.426E+02 0.126E+03   -.611E+01 0.772E-01 -.259E+01
   0.193E+03 -.193E+03 0.340E+03   -.200E+03 0.194E+03 -.344E+03   0.619E+01 -.373E+00 0.302E+01
   0.362E+03 -.160E+03 0.161E+03   -.368E+03 0.161E+03 -.165E+03   0.580E+01 -.137E+01 0.307E+01
   -.204E+03 -.189E+03 -.319E+03   0.210E+03 0.188E+03 0.323E+03   -.557E+01 0.415E+00 -.367E+01
   0.539E+02 -.254E+02 0.562E+02   -.574E+02 0.258E+02 -.582E+02   0.538E+01 -.610E+00 0.300E+01
   -.611E+02 0.269E+02 -.619E+02   0.621E+02 -.307E+02 0.673E+02   -.142E+01 0.332E+01 -.497E+01
   -.708E+02 -.573E+02 0.450E+02   0.750E+02 0.601E+02 -.471E+02   -.440E+01 -.285E+01 0.198E+01
   -.679E+01 -.650E+02 0.830E+02   0.589E+01 0.686E+02 -.881E+02   0.692E+00 -.333E+01 0.470E+01
   -.880E+02 0.204E+02 -.629E+02   0.938E+02 -.203E+02 0.653E+02   -.539E+01 0.237E+00 -.251E+01
   -.834E+02 0.239E+02 -.654E+02   0.890E+02 -.238E+02 0.677E+02   -.517E+01 0.219E+00 -.240E+01
   -.197E+02 0.606E+02 -.878E+02   0.209E+02 -.639E+02 0.927E+02   -.944E+00 0.320E+01 -.462E+01
   0.553E+02 0.645E+02 -.625E+02   -.598E+02 -.678E+02 0.651E+02   0.410E+01 0.316E+01 -.251E+01
   0.689E+02 0.412E+02 -.272E+02   -.750E+02 -.413E+02 0.250E+02   0.575E+01 0.267E+00 0.198E+01
   0.986E+01 -.467E+02 0.657E+02   -.106E+02 0.499E+02 -.703E+02   0.672E+00 -.309E+01 0.431E+01
   -.485E+02 0.871E+02 0.168E+02   0.525E+02 -.926E+02 -.182E+02   -.350E+01 0.467E+01 0.103E+01
   -.566E+02 -.579E+02 -.961E+02   0.647E+02 0.597E+02 0.103E+03   -.594E+01 -.305E+01 -.653E+01
   -.493E+02 -.178E+02 -.531E+02   0.529E+02 0.173E+02 0.554E+02   -.525E+01 0.536E+00 -.331E+01
   0.660E+02 0.179E+02 0.614E+02   -.679E+02 -.218E+02 -.657E+02   0.234E+01 0.341E+01 0.425E+01
   0.496E+02 -.867E+02 -.298E+02   -.525E+02 0.913E+02 0.311E+02   0.304E+01 -.453E+01 -.129E+01
   -.112E+02 -.785E+02 -.691E+02   0.130E+02 0.819E+02 0.730E+02   -.171E+01 -.358E+01 -.394E+01
   0.866E+02 0.833E+01 0.662E+02   -.916E+02 -.706E+01 -.688E+02   0.499E+01 -.107E+01 0.272E+01
   0.827E+02 0.114E+02 0.660E+02   -.880E+02 -.102E+02 -.688E+02   0.501E+01 -.125E+01 0.260E+01
   0.322E+02 0.695E+02 0.740E+02   -.338E+02 -.729E+02 -.777E+02   0.190E+01 0.336E+01 0.390E+01
   -.420E+02 0.902E+02 0.354E+02   0.455E+02 -.953E+02 -.369E+02   -.332E+01 0.462E+01 0.116E+01
   -.682E+02 0.638E+02 -.732E+01   0.735E+02 -.652E+02 0.999E+01   -.500E+01 0.118E+01 -.264E+01
   0.769E+02 -.400E+02 0.861E+02   -.840E+02 0.406E+02 -.897E+02   0.675E+01 -.134E+01 0.452E+01
   0.175E+02 -.667E+02 0.962E+02   -.219E+02 0.669E+02 -.983E+02   0.163E+01 -.632E+00 0.150E+01
   0.597E+02 0.131E+03 -.185E+03   -.633E+02 -.153E+03 0.211E+03   0.111E+01 0.183E+02 -.249E+02
   0.441E+02 -.322E+02 -.121E+03   -.597E+02 0.588E+02 0.130E+03   0.155E+02 -.230E+02 -.706E+01
   -.175E+01 -.701E+02 -.689E+02   0.525E+01 0.692E+02 0.707E+02   -.124E+01 0.202E+00 -.761E+00
   -.398E+03 0.797E+02 -.271E+03   0.439E+03 -.855E+02 0.295E+03   -.376E+02 0.519E+01 -.222E+02
   -.309E+02 -.185E+03 -.217E+03   0.138E+02 0.204E+03 0.220E+03   0.116E+02 -.147E+02 -.327E+01
   0.411E+03 0.993E+01 0.294E+03   -.452E+03 -.731E+01 -.321E+03   0.372E+02 -.260E+01 0.244E+02
   0.532E+02 -.190E+03 0.281E+03   -.224E+02 0.212E+03 -.297E+03   -.253E+02 -.175E+02 0.128E+02
 -----------------------------------------------------------------------------------------------
   -.255E+01 0.179E+02 0.130E+02   -.110E-12 -.256E-12 -.341E-12   0.324E+01 -.139E+02 -.121E+02
 
 
 POSITION                                       TOTAL-FORCE (eV/Angst)
 -----------------------------------------------------------------------------------
     20.83345     15.53384     15.92324         5.050878      0.431650      1.482289
     21.97967     17.07752     14.34603        -1.803060     -0.172512     -0.503134
     23.21261     17.03560     14.90491         3.140714      0.318756      0.863353
     24.29927     17.76419     14.38299        -0.102390     -0.357874      0.431238
     24.14533     18.55116     13.27725         0.825924      0.248392      0.004960
     22.89744     18.59571     12.70879        -0.711913      0.503205     -0.959183
     21.82792     17.89255     13.20401        -0.759992     -0.357942      0.165199
     19.69664     14.77910     16.45967         1.140486     -0.110174      0.568605
     19.92797     13.99756     17.58875         0.407015      0.714280     -0.778698
     18.91462     13.25687     18.15682         0.876900      0.193117      0.086968
     19.21265     12.50168     19.27811        -0.118990     -1.267011      1.630133
     18.24350     11.73893     19.89338         1.091160      0.233295      0.146470
     16.98183     11.75222     19.36198        -1.317818      0.573597     -1.307238
     16.66831     12.51235     18.22782        -0.430365     -1.586315      1.926226
     17.63620     13.28114     17.60406        -0.717436     -0.803891      0.756573
     17.36648     14.04391     16.48422        -0.111171      0.552826     -0.489897
     16.03768     14.08196     15.89329         0.856941      1.239208     -1.371246
     13.37216     12.86462     14.64661         0.674425      0.053702      0.521163
     12.13120     13.07242     13.92643         0.251211      1.691896      1.647827
     11.37041     14.20773     14.25028         2.010033     -1.186354      0.532600
     10.16397     14.44762     13.57843         0.306240     -0.339456     -0.056578
      9.28601     15.57301     13.81191        -4.473132      2.416263     -1.323456
      8.69752     17.71526     15.02301         1.579130     -1.535239     -0.043789
      7.52520     17.99446     14.40311        -3.021369      0.507555     -1.753902
      6.73460     19.11579     14.69489         0.475990     -0.435822      0.010731
      7.17260     19.97931     15.66283        -0.681381      0.893217      0.192045
      8.36170     19.71251     16.30409         0.376120      0.613724      0.737149
      9.11931     18.60741     16.00121         0.687726      0.289482      0.710909
      9.76598     13.53975     12.60703        -0.590776      1.204551      0.498797
     10.51008     12.42516     12.28712        -1.536997      0.239029     -0.918475
     10.02164     11.56870     11.29074         0.784433     -0.661025      0.052543
     10.77866     10.46147     10.98558        -1.764196      0.028502     -1.224260
     11.95997     10.22861     11.64496         1.631576      0.068427      1.205879
     12.43460     11.08541     12.63184         0.164612     -2.120126     -1.491173
     11.69627     12.18708     12.94599         0.759566      0.327549      0.789433
     18.43198     14.77682     15.94766        -3.943546     -0.143980     -1.400842
     25.88638     17.69519     15.12239        -0.876843     -0.156383     -0.151667
     20.24034     17.97358     12.44863         0.846817      0.129514      0.174289
      5.23278     19.43176     13.86898         0.730582     -0.324477      0.272760
     10.61307     18.37202     16.88275        -0.477415     -0.065711     -0.389559
     19.93778     16.49059     14.29130         2.050810     -0.207416      1.108697
     23.47150     16.46147     15.77145        -0.524826     -0.278612      0.161833
     24.99414     19.11198     12.88052        -0.419180     -0.136552     -0.009833
     22.76180     19.21300     11.83540        -0.170271      0.086156     -0.180519
     20.90001     13.94398     18.05551         0.178918      0.286209     -0.318801
     20.20417     12.47746     19.71400         0.146946      0.266237     -0.275978
     18.43221     11.13398     20.77121         0.286512      0.088383      0.005436
     16.21132     11.15963     19.83283        -0.202947     -0.023397     -0.041418
     15.65595     12.46300     17.88086        -0.060318      0.146857     -0.180149
     15.94261     14.72218     15.00673        -0.042662     -0.090578     -0.070524
     13.98551     12.01359     14.43450         0.267733     -0.597952     -0.357222
     12.40945     15.31724     15.82866         1.872150     -1.344513      0.396767
     10.39995     16.50944     15.31261        -1.835425      0.090398     -1.242838
      7.09345     17.37595     13.62591         0.587813     -0.316042      0.179887
      6.58700     20.86379     15.91997         0.239949     -0.221023     -0.015983
      8.70183     20.40826     17.07489        -0.007729     -0.308044     -0.214970
      8.82903     13.71681     12.07822         0.236707      0.134660      0.277412
      9.08517     11.80362     10.80624        -0.031090     -0.086608     -0.094788
     10.40935      9.78187     10.20784         0.328791      0.145755      0.326084
     12.56735      9.36819     11.42140         0.000959     -0.288284     -0.209832
     13.36498     10.87600     13.13143         0.052197     -0.181961     -0.108380
     17.36552     15.64542     14.36305         0.080071     -0.795405      1.080295
     20.86273     16.37242     14.82468        -2.555581     -0.467173     -0.437824
     14.99274     13.48246     16.26218        -2.432941     -1.487750     -0.740045
     13.80420     13.65397     15.55157         1.475720      1.307417      1.214958
      9.50198     16.58636     14.73497         2.129733     -0.681156      0.981299
     21.93961     15.38682     16.56849        -3.055024      0.181170     -1.480221
     11.79110     15.04927     15.18735        -3.856726      1.995676     -1.248673
      8.21736     15.64863     13.11260         2.502260     -0.436908      1.429680
     18.19224     15.53062     14.85184         1.527760      1.373012     -1.179389
 -----------------------------------------------------------------------------------
    total drift:                                0.078976      0.018164      0.016235


--------------------------------------------------------------------------------------------------------



  FREE ENERGIE OF THE ION-ELECTRON SYSTEM (eV)
  ---------------------------------------------------
  free  energy   TOTEN  =      -579.85545945 eV

  energy  without entropy=     -579.85545945  energy(sigma->0) =     -579.85545945
 


--------------------------------------------------------------------------------------------------------


    POTLOK:  cpu time    3.7559: real time    3.7654


--------------------------------------------------------------------------------------------------------


 stress matrix after NEB project (eV)
     -1.15411      0.03678     -0.24085
      0.03678     -0.78775      0.04461
     -0.24085      0.04461     -0.73162
  FORCES: max atom, RMS     5.281560    1.963067
  FORCE total and by dimension   16.424198    5.050878
  Stress total and by dimension    1.615702    1.154112
     LOOP+:  cpu time 9663.6294: real time 9700.0153
    4ORBIT:  cpu time    0.0000: real time    0.0000

 total amount of memory used by VASP on root node  2457718. kBytes
========================================================================

   base      :      30000. kBytes
   nonl-proj :     493464. kBytes
   fftplans  :     338850. kBytes
   grid      :     952390. kBytes
   one-center:        107. kBytes
   HF        :         23. kBytes
   nonlr-proj:        917. kBytes
   wavefun   :     641967. kBytes
 
  
  
 General timing and accounting informations for this job:
 ========================================================
  
                  Total CPU time used (sec):     9705.321
                            User time (sec):     9660.084
                          System time (sec):       45.237
                         Elapsed time (sec):     9745.908
  
                   Maximum memory used (kb):     3291272.
                   Average memory used (kb):           0.
  
                          Minor page faults:       834402
                          Major page faults:          182
                 Voluntary context switches:         2824
