Molecule_POSCAR_07                      
   1.00000000000000     
    20.0000000000000000    0.0000000000000000    0.0000000000000000
     0.0000000000000000   20.0000000000000000    0.0000000000000000
     0.0000000000000000    0.0000000000000000   20.0000000000000000
   C    H    N    O 
     7    13     1     1
Direct
  0.4795523499999987  0.5830770000000030  0.5122401499999967
  0.5039395000000013  0.5246090999999993  0.4719924500000019
  0.5765370499999989  0.5131902500000010  0.4863936499999966
  0.5895350500000021  0.4984133499999999  0.5595155000000034
  0.4653125500000002  0.4620151000000021  0.4821211000000005
  0.3922658999999982  0.4694123499999989  0.4637206000000020
  0.3568210500000006  0.4063597000000030  0.4746880499999975
  0.4368744000000007  0.6063032500000034  0.4872525500000009
  0.4703583000000009  0.5703257999999991  0.5652613000000031
  0.5210154000000031  0.6207509999999985  0.5125852500000008
  0.4998533500000022  0.5388675499999991  0.4184362000000021
  0.6028649000000001  0.5616981499999980  0.4755147500000021
  0.5991497500000023  0.4757048999999967  0.4531558999999987
  0.5605083499999992  0.4526058499999976  0.5722413000000017
  0.5722019999999972  0.5386749999999978  0.5922917999999981
  0.6798276999999970  0.4735134000000016  0.5309605500000032
  0.4670932000000008  0.4415515499999998  0.5329612499999996
  0.4866156499999974  0.4237375000000014  0.4476298000000014
  0.3684979499999983  0.5083931500000034  0.4955551500000013
  0.3855475499999983  0.4864079500000003  0.4113651500000017
  0.3283837000000034  0.3563947999999968  0.4824582500000005
  0.6572443000000021  0.4879934000000006  0.5716593000000003
 
  0.00000000E+00  0.00000000E+00  0.00000000E+00
  0.00000000E+00  0.00000000E+00  0.00000000E+00
  0.00000000E+00  0.00000000E+00  0.00000000E+00
  0.00000000E+00  0.00000000E+00  0.00000000E+00
  0.00000000E+00  0.00000000E+00  0.00000000E+00
  0.00000000E+00  0.00000000E+00  0.00000000E+00
  0.00000000E+00  0.00000000E+00  0.00000000E+00
  0.00000000E+00  0.00000000E+00  0.00000000E+00
  0.00000000E+00  0.00000000E+00  0.00000000E+00
  0.00000000E+00  0.00000000E+00  0.00000000E+00
  0.00000000E+00  0.00000000E+00  0.00000000E+00
  0.00000000E+00  0.00000000E+00  0.00000000E+00
  0.00000000E+00  0.00000000E+00  0.00000000E+00
  0.00000000E+00  0.00000000E+00  0.00000000E+00
  0.00000000E+00  0.00000000E+00  0.00000000E+00
  0.00000000E+00  0.00000000E+00  0.00000000E+00
  0.00000000E+00  0.00000000E+00  0.00000000E+00
  0.00000000E+00  0.00000000E+00  0.00000000E+00
  0.00000000E+00  0.00000000E+00  0.00000000E+00
  0.00000000E+00  0.00000000E+00  0.00000000E+00
  0.00000000E+00  0.00000000E+00  0.00000000E+00
  0.00000000E+00  0.00000000E+00  0.00000000E+00
