   22   22    1    1
  0.3636364E+03  0.2000000E-08  0.2000000E-08  0.2000000E-08  0.5000000E-15
  1.000000000000000E-004
  CAR 
 QM9_Benchmark_B3LYP_Gap_Dipole          
     52      1     40
 
  0.0000000E+00  0.0000000E+00  0.0000000E+00  0.1000000E+01
      1        -28.172897   1.000000
      2        -24.737193   1.000000
      3        -23.403341   1.000000
      4        -21.679562   1.000000
      5        -19.785590   1.000000
      6        -18.730740   1.000000
      7        -17.660116   1.000000
      8        -15.723489   1.000000
      9        -14.330665   1.000000
     10        -14.107252   1.000000
     11        -13.483517   1.000000
     12        -13.237857   1.000000
     13        -12.630067   1.000000
     14        -12.106933   1.000000
     15        -11.731291   1.000000
     16        -11.332088   1.000000
     17        -10.974289   1.000000
     18        -10.295642   1.000000
     19         -9.975314   1.000000
     20         -9.937045   1.000000
     21         -9.598302   1.000000
     22         -9.457203   1.000000
     23         -8.952794   1.000000
     24         -8.875447   1.000000
     25         -8.681129   1.000000
     26         -7.538299   1.000000
     27         -0.533533   0.000000
     28         -0.164095   0.000000
     29         -0.075763   0.000000
     30          0.058011   0.000000
     31          0.188165   0.000000
     32          0.293259   0.000000
     33          0.433455   0.000000
     34          0.503868   0.000000
     35          0.521714   0.000000
     36          0.564167   0.000000
     37          0.588052   0.000000
     38          0.629339   0.000000
     39          0.682046   0.000000
     40          0.765980   0.000000
