 vasp.6.4.2 20Jul23 (build Mar 28 2025 16:44:38) complex                        
  
 executed on             LinuxIFC date 2026.02.17  14:50:24
 running   32 mpi-ranks, on    1 nodes
 distrk:  each k-point on   32 cores,    1 groups
 distr:  one band on NCORE=   4 cores,    8 groups


--------------------------------------------------------------------------------------------------------


 INCAR:
   SYSTEM = QM9_Benchmark_B3LYP_Gap_Dipole
   PREC = Accurate
   ENCUT = 500
   EDIFF = 1E-6
   ISMEAR = 0
   SIGMA = 0.05
   NELM = 100
   IBRION = -1
   NSW = 0
   LHFCALC = .TRUE.
   GGA = B3
   AEXX = 0.20
   AGGAX = 0.72
   AGGAC = 0.81
   ALDAC = 0.19
   ALGO = Damped
   TIME = 0.4
   LDIPOL = .TRUE.
   IDIPOL = 4
   DIPOL = 0.5 0.5 0.5
   LORBIT = 11
   NEDOS = 2000
   ISYM = 0
   LREAL = .FALSE.
   NCORE = 4

 POTCAR:    PAW_PBE C 08Apr2002                   
 POTCAR:    PAW_PBE H 15Jun2001                   
 POTCAR:    PAW_PBE N 08Apr2002                   
 POTCAR:    PAW_PBE O 08Apr2002                   
 POTCAR:    PAW_PBE C 08Apr2002                   
   VRHFIN =C: s2p2                                                                                  
   LEXCH  = PE                                                                                      
   EATOM  =   147.1560 eV,   10.8157 Ry                                                             
                                                                                                    
   TITEL  = PAW_PBE C 08Apr2002                                                                     
   LULTRA =        F    use ultrasoft PP ?                                                          
   IUNSCR =        1    unscreen: 0-lin 1-nonlin 2-no                                               
   RPACOR =    1.200    partial core radius                                                         
   POMASS =   12.011; ZVAL   =    4.000    mass and valenz                                          
   RCORE  =    1.500    outmost cutoff radius                                                       
   RWIGS  =    1.630; RWIGS  =    0.863    wigner-seitz radius (au A)                               
   ENMAX  =  400.000; ENMIN  =  300.000 eV                                                          
   ICORE  =        2    local potential                                                             
   LCOR   =        T    correct aug charges                                                         
   LPAW   =        T    paw PP                                                                      
   EAUG   =  644.873                                                                                
   DEXC   =    0.000                                                                                
   RMAX   =    1.529    core radius for proj-oper                                                   
   RAUG   =    1.300    factor for augmentation sphere                                              
   RDEP   =    1.501    radius for radial grids                                                     
   RDEPT  =    1.300    core radius for aug-charge                                                  
                                                                                                    
   Atomic configuration                                                                             
    4 entries                                                                                       
     n  l   j            E        occ.                                                              
     1  0  0.50      -273.3789   2.0000                                                             
     2  0  0.50       -13.7508   2.0000                                                             
     2  1  0.50        -5.2854   2.0000                                                             
     3  2  1.50        -5.4423   0.0000                                                             
   Description                                                                                      
     l       E           TYP  RCUT    TYP  RCUT                                                     
     0    -13.7508458     23  1.200                                                                 
     0     -8.2022199     23  1.200                                                                 
     1     -5.2854383     23  1.500                                                                 
     1     34.0145650     23  1.500                                                                 
     2     -5.4423304      7  1.500                                                                 
  local pseudopotential read in
  partial core-charges read in
  partial kinetic energy density read in
  atomic valenz-charges read in
  non local Contribution for L=           0  read in
    real space projection operators read in
  non local Contribution for L=           0  read in
    real space projection operators read in
  non local Contribution for L=           1  read in
    real space projection operators read in
  non local Contribution for L=           1  read in
    real space projection operators read in
    PAW grid and wavefunctions read in
 
   number of l-projection  operators is LMAX  =           4
   number of lm-projection operators is LMMAX =           8
 
 POTCAR:    PAW_PBE H 15Jun2001                   
   VRHFIN =H: ultrasoft test                                                                        
   LEXCH  = PE                                                                                      
   EATOM  =    12.4884 eV,    0.9179 Ry                                                             
                                                                                                    
   TITEL  = PAW_PBE H 15Jun2001                                                                     
   LULTRA =        F    use ultrasoft PP ?                                                          
   IUNSCR =        0    unscreen: 0-lin 1-nonlin 2-no                                               
   RPACOR =    0.000    partial core radius                                                         
   POMASS =    1.000; ZVAL   =    1.000    mass and valenz                                          
   RCORE  =    1.100    outmost cutoff radius                                                       
   RWIGS  =    0.700; RWIGS  =    0.370    wigner-seitz radius (au A)                               
   ENMAX  =  250.000; ENMIN  =  200.000 eV                                                          
   RCLOC  =    0.701    cutoff for local pot                                                        
   LCOR   =        T    correct aug charges                                                         
   LPAW   =        T    paw PP                                                                      
   EAUG   =  400.000                                                                                
   RMAX   =    1.123    core radius for proj-oper                                                   
   RAUG   =    1.200    factor for augmentation sphere                                              
   RDEP   =    1.112    radius for radial grids                                                     
   RDEPT  =    0.926    core radius for aug-charge                                                  
                                                                                                    
   Atomic configuration                                                                             
    2 entries                                                                                       
     n  l   j            E        occ.                                                              
     1  0  0.50        -6.4927   1.0000                                                             
     2  1  0.50        -3.4015   0.0000                                                             
   Description                                                                                      
     l       E           TYP  RCUT    TYP  RCUT                                                     
     0     -6.4927494     23  1.100                                                                 
     0      6.8029130     23  1.100                                                                 
     1     -4.0817478     23  1.100                                                                 
  local pseudopotential read in
  atomic valenz-charges read in
  non local Contribution for L=           0  read in
    real space projection operators read in
  non local Contribution for L=           0  read in
    real space projection operators read in
  non local Contribution for L=           1  read in
    real space projection operators read in
    PAW grid and wavefunctions read in
 
   number of l-projection  operators is LMAX  =           3
   number of lm-projection operators is LMMAX =           5
 
 POTCAR:    PAW_PBE N 08Apr2002                   
   VRHFIN =N: s2p3                                                                                  
   LEXCH  = PE                                                                                      
   EATOM  =   264.5486 eV,   19.4438 Ry                                                             
                                                                                                    
   TITEL  = PAW_PBE N 08Apr2002                                                                     
   LULTRA =        F    use ultrasoft PP ?                                                          
   IUNSCR =        1    unscreen: 0-lin 1-nonlin 2-no                                               
   RPACOR =    1.200    partial core radius                                                         
   POMASS =   14.001; ZVAL   =    5.000    mass and valenz                                          
   RCORE  =    1.500    outmost cutoff radius                                                       
   RWIGS  =    1.400; RWIGS  =    0.741    wigner-seitz radius (au A)                               
   ENMAX  =  400.000; ENMIN  =  300.000 eV                                                          
   ICORE  =        2    local potential                                                             
   LCOR   =        T    correct aug charges                                                         
   LPAW   =        T    paw PP                                                                      
   EAUG   =  627.112                                                                                
   DEXC   =    0.000                                                                                
   RMAX   =    1.529    core radius for proj-oper                                                   
   RAUG   =    1.300    factor for augmentation sphere                                              
   RDEP   =    1.514    radius for radial grids                                                     
   RDEPT  =    1.338    core radius for aug-charge                                                  
                                                                                                    
   Atomic configuration                                                                             
    4 entries                                                                                       
     n  l   j            E        occ.                                                              
     1  0  0.50      -384.7179   2.0000                                                             
     2  0  0.50       -18.5828   2.0000                                                             
     2  1  0.50        -7.0898   3.0000                                                             
     3  2  1.50        -6.8029   0.0000                                                             
   Description                                                                                      
     l       E           TYP  RCUT    TYP  RCUT                                                     
     0    -18.5828119     23  1.200                                                                 
     0    -13.5018863     23  1.200                                                                 
     1     -7.0897853     23  1.500                                                                 
     1      9.5240782     23  1.500                                                                 
     2     -6.8029130      7  1.500                                                                 
  local pseudopotential read in
  partial core-charges read in
  partial kinetic energy density read in
  atomic valenz-charges read in
  non local Contribution for L=           0  read in
    real space projection operators read in
  non local Contribution for L=           0  read in
    real space projection operators read in
  non local Contribution for L=           1  read in
    real space projection operators read in
  non local Contribution for L=           1  read in
    real space projection operators read in
    PAW grid and wavefunctions read in
 
   number of l-projection  operators is LMAX  =           4
   number of lm-projection operators is LMMAX =           8
 
 POTCAR:    PAW_PBE O 08Apr2002                   
   VRHFIN =O: s2p4                                                                                  
   LEXCH  = PE                                                                                      
   EATOM  =   432.3788 eV,   31.7789 Ry                                                             
                                                                                                    
   TITEL  = PAW_PBE O 08Apr2002                                                                     
   LULTRA =        F    use ultrasoft PP ?                                                          
   IUNSCR =        1    unscreen: 0-lin 1-nonlin 2-no                                               
   RPACOR =    1.200    partial core radius                                                         
   POMASS =   16.000; ZVAL   =    6.000    mass and valenz                                          
   RCORE  =    1.520    outmost cutoff radius                                                       
   RWIGS  =    1.550; RWIGS  =    0.820    wigner-seitz radius (au A)                               
   ENMAX  =  400.000; ENMIN  =  300.000 eV                                                          
   ICORE  =        2    local potential                                                             
   LCOR   =        T    correct aug charges                                                         
   LPAW   =        T    paw PP                                                                      
   EAUG   =  605.392                                                                                
   DEXC   =    0.000                                                                                
   RMAX   =    1.553    core radius for proj-oper                                                   
   RAUG   =    1.300    factor for augmentation sphere                                              
   RDEP   =    1.550    radius for radial grids                                                     
   RDEPT  =    1.329    core radius for aug-charge                                                  
                                                                                                    
   Atomic configuration                                                                             
    4 entries                                                                                       
     n  l   j            E        occ.                                                              
     1  0  0.50      -514.6923   2.0000                                                             
     2  0  0.50       -23.9615   2.0000                                                             
     2  1  0.50        -9.0305   4.0000                                                             
     3  2  1.50        -9.5241   0.0000                                                             
   Description                                                                                      
     l       E           TYP  RCUT    TYP  RCUT                                                     
     0    -23.9615318     23  1.200                                                                 
     0     -9.5240782     23  1.200                                                                 
     1     -9.0304911     23  1.520                                                                 
     1      8.1634956     23  1.520                                                                 
     2     -9.5240782      7  1.500                                                                 
  local pseudopotential read in
  partial core-charges read in
  partial kinetic energy density read in
  kinetic energy density of atom read in
  atomic valenz-charges read in
  non local Contribution for L=           0  read in
    real space projection operators read in
  non local Contribution for L=           0  read in
    real space projection operators read in
  non local Contribution for L=           1  read in
    real space projection operators read in
  non local Contribution for L=           1  read in
    real space projection operators read in
    PAW grid and wavefunctions read in
 
   number of l-projection  operators is LMAX  =           4
   number of lm-projection operators is LMMAX =           8
 
 -----------------------------------------------------------------------------
|                                                                             |
|               ----> ADVICE to this user running VASP <----                  |
|                                                                             |
|     You have a (more or less) 'large supercell' and for larger cells it     |
|     might be more efficient to use real-space projection operators.         |
|     Therefore, try LREAL= Auto in the INCAR file.                           |
|     Mind: For very accurate calculation, you might also keep the            |
|     reciprocal projection scheme (i.e. LREAL=.FALSE.).                      |
|                                                                             |
 -----------------------------------------------------------------------------

 -----------------------------------------------------------------------------
|                                                                             |
|               ----> ADVICE to this user running VASP <----                  |
|                                                                             |
|     You enforced a specific xc type in the INCAR file but a different       |
|     type was found in the POTCAR file.                                      |
|     I HOPE YOU KNOW WHAT YOU ARE DOING!                                     |
|                                                                             |
 -----------------------------------------------------------------------------

  PAW_PBE C 08Apr2002                   :
 energy of atom  1       EATOM= -147.1560
 kinetic energy error for atom=    0.0076 (will be added to EATOM!!)
  PAW_PBE H 15Jun2001                   :
 energy of atom  2       EATOM=  -12.4884
 kinetic energy error for atom=    0.0020 (will be added to EATOM!!)
  PAW_PBE N 08Apr2002                   :
 energy of atom  3       EATOM= -264.5486
 kinetic energy error for atom=    0.0138 (will be added to EATOM!!)
  PAW_PBE O 08Apr2002                   :
 energy of atom  4       EATOM= -432.3788
 kinetic energy error for atom=    0.0224 (will be added to EATOM!!)
 
 
 POSCAR: Molecule_POSCAR_07
  positions in cartesian coordinates
  No initial velocities read in
 exchange correlation table for  LEXCH =       11
   RHO(1)=    0.500       N(1)  =     2000
   RHO(2)=  100.500       N(2)  =     4000
 


--------------------------------------------------------------------------------------------------------


 ion  position               nearest neighbor table
   1  0.480  0.583  0.512-   8 1.09   9 1.11  10 1.12   2 1.50
   2  0.504  0.525  0.472-  11 1.11   5 1.48   3 1.50   1 1.50
   3  0.577  0.513  0.486-  13 1.10  12 1.13   2 1.50   4 1.51
   4  0.590  0.498  0.560-  15 1.09  14 1.11  22 1.39   3 1.51
   5  0.465  0.462  0.482-  17 1.10  18 1.12   2 1.48   6 1.51
   6  0.392  0.469  0.464-  20 1.11  19 1.11   7 1.46   5 1.51
   7  0.357  0.406  0.475-  21 1.16   6 1.46
   8  0.437  0.606  0.487-   1 1.09
   9  0.470  0.570  0.565-   1 1.11
  10  0.521  0.621  0.513-   1 1.12
  11  0.500  0.539  0.418-   2 1.11
  12  0.603  0.562  0.476-   3 1.13
  13  0.599  0.476  0.453-   3 1.10
  14  0.561  0.453  0.572-   4 1.11
  15  0.572  0.539  0.592-   4 1.09
  16  0.680  0.474  0.531-  22 0.97
  17  0.467  0.442  0.533-   5 1.10
  18  0.487  0.424  0.448-   5 1.12
  19  0.368  0.508  0.496-   6 1.11
  20  0.386  0.486  0.411-   6 1.11
  21  0.328  0.356  0.482-   7 1.16
  22  0.657  0.488  0.572-  16 0.97   4 1.39
 

IMPORTANT INFORMATION: All symmetrisations will be switched off!
NOSYMM: (Re-)initialisation of all symmetry stuff for point group C_1.


----------------------------------------------------------------------------------------

                                     Primitive cell                                     

  volume of cell :    8000.0000

  direct lattice vectors                    reciprocal lattice vectors
    20.000000000  0.000000000  0.000000000     0.050000000  0.000000000  0.000000000
     0.000000000 20.000000000  0.000000000     0.000000000  0.050000000  0.000000000
     0.000000000  0.000000000 20.000000000     0.000000000  0.000000000  0.050000000

  length of vectors
    20.000000000 20.000000000 20.000000000     0.050000000  0.050000000  0.050000000

  position of ions in fractional coordinates (direct lattice)
     0.479552350  0.583077000  0.512240150
     0.503939500  0.524609100  0.471992450
     0.576537050  0.513190250  0.486393650
     0.589535050  0.498413350  0.559515500
     0.465312550  0.462015100  0.482121100
     0.392265900  0.469412350  0.463720600
     0.356821050  0.406359700  0.474688050
     0.436874400  0.606303250  0.487252550
     0.470358300  0.570325800  0.565261300
     0.521015400  0.620751000  0.512585250
     0.499853350  0.538867550  0.418436200
     0.602864900  0.561698150  0.475514750
     0.599149750  0.475704900  0.453155900
     0.560508350  0.452605850  0.572241300
     0.572202000  0.538675000  0.592291800
     0.679827700  0.473513400  0.530960550
     0.467093200  0.441551550  0.532961250
     0.486615650  0.423737500  0.447629800
     0.368497950  0.508393150  0.495555150
     0.385547550  0.486407950  0.411365150
     0.328383700  0.356394800  0.482458250
     0.657244300  0.487993400  0.571659300

  ion indices of the primitive-cell ions
   primitive index   ion index
                 1           1
                 2           2
                 3           3
                 4           4
                 5           5
                 6           6
                 7           7
                 8           8
                 9           9
                10          10
                11          11
                12          12
                13          13
                14          14
                15          15
                16          16
                17          17
                18          18
                19          19
                20          20
                21          21
                22          22

----------------------------------------------------------------------------------------

 
 
 KPOINTS: Gamma-point only                        

Automatic generation of k-mesh.
 Grid dimensions read from file:
 generate k-points for:    1    1    1

 Generating k-lattice:

  Cartesian coordinates                     Fractional coordinates (reciprocal lattice)
     0.050000000  0.000000000  0.000000000     1.000000000  0.000000000  0.000000000
     0.000000000  0.050000000  0.000000000     0.000000000  1.000000000  0.000000000
     0.000000000  0.000000000  0.050000000     0.000000000  0.000000000  1.000000000

  Length of vectors
     0.050000000  0.050000000  0.050000000

  Shift w.r.t. Gamma in fractional coordinates (k-lattice)
     0.000000000  0.000000000  0.000000000

 
 Subroutine IBZKPT returns following result:
 ===========================================
 
 Found      1 irreducible k-points:
 
 Following reciprocal coordinates:
            Coordinates               Weight
  0.000000  0.000000  0.000000      1.000000
 
 Following cartesian coordinates:
            Coordinates               Weight
  0.000000  0.000000  0.000000      1.000000
 
 
 Subroutine IBZKPT_HF returns following result:
 ==============================================
 
 Found      1 k-points in 1st BZ
 the following      1 k-points will be used (e.g. in the exchange kernel)
 Following reciprocal coordinates:   # in IRBZ
  0.000000  0.000000  0.000000    1.00000000   1 t-inv F


--------------------------------------------------------------------------------------------------------




 Dimension of arrays:
   k-points           NKPTS =      1   k-points in BZ     NKDIM =      1   number of bands    NBANDS=     40
   number of dos      NEDOS =   2000   number of ions     NIONS =     22
   non local maximal  LDIM  =      4   non local SUM 2l+1 LMDIM =      8
   total plane-waves  NPLWV = ******
   max r-space proj   IRMAX =      1   max aug-charges    IRDMAX=   5672
   dimension x,y,z NGX =   150 NGY =  150 NGZ =  150
   dimension x,y,z NGXF=   300 NGYF=  300 NGZF=  300
   support grid    NGXF=   300 NGYF=  300 NGZF=  300
   ions per type =               7  13   1   1
   NGX,Y,Z   is equivalent  to a cutoff of  12.47, 12.47, 12.47 a.u.
   NGXF,Y,Z  is equivalent  to a cutoff of  24.94, 24.94, 24.94 a.u.

 SYSTEM =  QM9_Benchmark_B3LYP_Gap_Dipole          
 POSCAR =  Molecule_POSCAR_07                      

 Startparameter for this run:
   NWRITE =      2    write-flag & timer
   PREC   = accura    normal or accurate (medium, high low for compatibility)
   ISTART =      0    job   : 0-new  1-cont  2-samecut
   ICHARG =      2    charge: 1-file 2-atom 10-const
   ISPIN  =      1    spin polarized calculation?
   LNONCOLLINEAR =      F non collinear calculations
   LSORBIT =      F    spin-orbit coupling
   INIWAV =      1    electr: 0-lowe 1-rand  2-diag
   LASPH  =      F    aspherical Exc in radial PAW
 Electronic Relaxation 1
   ENCUT  =  500.0 eV  36.75 Ry    6.06 a.u.  36.46 36.46 36.46*2*pi/ulx,y,z
   ENINI  =  500.0     initial cutoff
   ENAUG  =  644.9 eV  augmentation charge cutoff
   NELM   =    100;   NELMIN=  2; NELMDL= -5     # of ELM steps 
   EDIFF  = 0.1E-05   stopping-criterion for ELM
   LREAL  =      F    real-space projection
   NLSPLINE    = F    spline interpolate recip. space projectors
   LCOMPAT=      F    compatible to vasp.4.4
   GGA_COMPAT  = T    GGA compatible to vasp.4.4-vasp.4.6
   LMAXPAW     = -100 max onsite density
   LMAXMIX     =    2 max onsite mixed and CHGCAR
   VOSKOWN=      0    Vosko Wilk Nusair interpolation
   ROPT   =    0.00000   0.00000   0.00000   0.00000
 Ionic relaxation
   EDIFFG = 0.1E-04   stopping-criterion for IOM
   NSW    =      0    number of steps for IOM
   NBLOCK =      1;   KBLOCK =      1    inner block; outer block 
   IBRION =     -1    ionic relax: 0-MD 1-quasi-New 2-CG
   NFREE  =      0    steps in history (QN), initial steepest desc. (CG)
   ISIF   =      0    stress and relaxation
   IWAVPR =     10    prediction:  0-non 1-charg 2-wave 3-comb
   ISYM   =      0    0-nonsym 1-usesym 2-fastsym
   LCORR  =      T    Harris-Foulkes like correction to forces

   POTIM  = 0.5000    time-step for ionic-motion
   TEIN   =    0.0    initial temperature
   TEBEG  =    0.0;   TEEND  =   0.0 temperature during run
   SMASS  =  -3.00    Nose mass-parameter (am)
   estimated Nose-frequenzy (Omega)   =  0.10E-29 period in steps = 0.13E+47 mass=  -0.914E-26a.u.
   SCALEE = 1.0000    scale energy and forces
   NPACO  =    256;   APACO  = 10.0  distance and # of slots for P.C.
   PSTRESS=    0.0 pullay stress

  Mass of Ions in am
   POMASS =  12.01  1.00 14.00 16.00
  Ionic Valenz
   ZVAL   =   4.00  1.00  5.00  6.00
  Atomic Wigner-Seitz radii
   RWIGS  =  -1.00 -1.00 -1.00 -1.00
  virtual crystal weights 
   VCA    =   1.00  1.00  1.00  1.00
   NELECT =      52.0000    total number of electrons
   NUPDOWN=      -1.0000    fix difference up-down

 DOS related values:
   EMIN   =  10.00;   EMAX   =-10.00  energy-range for DOS
   EFERMI =   0.00;   METHOD = LEGACY      
   ISMEAR =     0;   SIGMA  =   0.05  broadening in eV -4-tet -1-fermi 0-gaus

 Electronic relaxation 2 (details)
   IALGO  =     53    algorithm
   LDIAG  =      T    sub-space diagonalisation (order eigenvalues)
   LSUBROT=      F    optimize rotation matrix (better conditioning)
   TURBO    =      0    0=normal 1=particle mesh
   IRESTART =      0    0=no restart 2=restart with 2 vectors
   NREBOOT  =      0    no. of reboots
   NMIN     =      0    reboot dimension
   EREF     =   0.00    reference energy to select bands
   IMIX   =      4    mixing-type and parameters
     AMIX     =   0.40;   BMIX     =  1.00
     AMIX_MAG =   1.60;   BMIX_MAG =  1.00
     AMIN     =   0.10
     WC   =   100.;   INIMIX=   1;  MIXPRE=   1;  MAXMIX= -45

 Intra band minimization:
   WEIMIN = 0.0000     energy-eigenvalue tresh-hold
   EBREAK =  0.62E-08  absolut break condition
   DEPER  =   0.30     relativ break condition  

   TIME   =   0.40     timestep for ELM

  volume/ion in A,a.u.               =     363.64      2453.94
  Fermi-wavevector in a.u.,A,eV,Ry     =   0.305524  0.577357  1.270038  0.093345
  Thomas-Fermi vector in A             =   1.178628
 
 Write flags
   LWAVE        =      T    write WAVECAR
   LDOWNSAMPLE  =      F    k-point downsampling of WAVECAR
   LCHARG       =      T    write CHGCAR
   LVTOT        =      F    write LOCPOT, total local potential
   LVHAR        =      F    write LOCPOT, Hartree potential only
   LELF         =      F    write electronic localiz. function (ELF)
   LORBIT       =     11    0 simple, 1 ext, 2 COOP (PROOUT), +10 PAW based schemes


 Dipole corrections
   LMONO  =      F    monopole corrections only (constant potential shift)
   LDIPOL =      T    correct potential (dipole corrections)
   IDIPOL =      4    1-x, 2-y, 3-z, 4-all directions 
   EPSILON=  1.0000000 bulk dielectric constant

 Exchange correlation treatment:
   GGA     =    B3    GGA type
   LEXCH   =    11    internal setting for exchange type
   LIBXC   =     F    Libxc                    
   VOSKOWN =     0    Vosko Wilk Nusair interpolation
   EXXOEP  =     0    0=HF, 1=EXX-LHF (local Hartree Fock) 2=EXX OEP
   LHFCALC =     T    Hartree Fock is set to
   LSYMGRAD=     F    symmetrize gradient (conserves proper symmetry)
   PRECFOCK=normal    Normal, Fast or Accurate (Low or Medium for compatibility)
   LRHFCALC=     F    long range Hartree Fock
   LRSCOR  =     F    long range correlation only (use DFT for short range part)
   LTHOMAS =     F    Thomas Fermi screening in HF
   LMODELHF=     F    short range full HF, long range fraction AEXX
   FOCKCORR=     1    mode to apply convergence corrections
   LFOCKACE=     T    use Adeptively-Compressed-Exchange operator
   ENCUT4O =  -1.0   cutoff for four orbital integrals eV
   LMAXFOCK=     4    L truncation for augmentation on plane wave grid
   LMAXFOCKAE=  -1    L truncation for all-electron charge restoration on plane wave grid
   NMAXFOCKAE=   1    number of basis functions for all-electron charge restoration
   LFOCKAEDFT=     F  apply the AE augmentation even for DFT
   NKREDX  =     1    reduce k-point grid by
   NKREDY  =     1    reduce k-point grid by
   NKREDZ  =     1    reduce k-point grid by
   SHIFTRED=     F    shift reduced grid of Gamma
   HFKIDENT=     F    idential grid for each k-point
   ODDONLY =     F    use only odd q-grid points
   EVENONLY=     F    use only even q-grid points
   HFALPHA =   -1.0000 decay constant for conv. correction
   MCALPHA =    0.0000 extent of test-charge in conv. correction in multipole expansion
   AEXX    =    0.2000 exact exchange contribution
   HFSCREEN=    0.0000 screening length (either q_TF or 0.3 A-1)
   HFSCREENC=   0.0000 screening length for correlation (either q_TF or 0.3 A-1)
   HFRCUT  =    0.0000 spherical cutoff for potential kernel
   ALDAX   =    0.8000 LDA exchange part
   AGGAX   =    0.7200 GGA exchange part
   ALDAC   =    0.1900 LDA correlation
   AGGAC   =    0.8100 GGA correlation
   ENCUTFOCK=  -1.0 apply spherical cutoff to Coloumb kernel
   NBANDSGWLOW=     1    first orbital included in HF term
   NBLOCK_FOCK=    64    blocking factor in FOCK_ACC

 Linear response parameters
   LEPSILON=     F    determine dielectric tensor
   LRPA    =     F    only Hartree local field effects (RPA)
   LNABLA  =     F    use nabla operator in PAW spheres
   LVEL    =     F    velocity operator in full k-point grid
   CSHIFT  =0.1000    complex shift for real part using Kramers Kronig
   OMEGAMAX=  -1.0    maximum frequency
   DEG_THRESHOLD= 0.2000000E-02 threshold for treating states as degnerate
   RTIME   =   -0.100 relaxation time in fs
  (WPLASMAI=    0.000 imaginary part of plasma frequency in eV, 0.658/RTIME)
   DFIELD  = 0.0000000 0.0000000 0.0000000 field for delta impulse in time
 
  Optional k-point grid parameters
   LKPOINTS_OPT  =     F    use optional k-point grid
   KPOINTS_OPT_MODE=     1    mode for optional k-point grid
 
 Orbital magnetization related:
   ORBITALMAG=     F  switch on orbital magnetization
   LCHIMAG   =     F  perturbation theory with respect to B field
   DQ        =  0.001000  dq finite difference perturbation B field
   LLRAUG    =     F  two centre corrections for induced B field
   LBONE     =     F  B-component reconstruction in AE one-centre
   LVGVCALC  =     T  calculate vGv susceptibility
   LVGVAPPL  =     F  apply vGv susceptibility instead of pGv for G=0

 Random number generation:
   RANDOM_GENERATOR = DEFAULT
   PCG_SEED         = not used


--------------------------------------------------------------------------------------------------------


 Static calculation
 charge density and potential will be updated during run
 non-spin polarized calculation
 Conjugate gradient for all bands (Freysoldt, et al. PRB 79, 241103 (2009))
 perform sub-space diagonalisation
    before iterative eigenvector-optimisation
 modified Broyden-mixing scheme, WC =      100.0
 initial mixing is a Kerker type mixing with AMIX =  0.4000 and BMIX =      1.0000
 Hartree-type preconditioning will be used
 using additional bands           14
 reciprocal scheme for non local part
 use partial core corrections
 no Harris-corrections to forces 
 use gradient corrections 
 use of overlap-Matrix (Vanderbilt PP)
 Gauss-broadening in eV      SIGMA  =   0.05


--------------------------------------------------------------------------------------------------------


  energy-cutoff  :      500.00
  volume of cell :     8000.00
      direct lattice vectors                 reciprocal lattice vectors
    20.000000000  0.000000000  0.000000000     0.050000000  0.000000000  0.000000000
     0.000000000 20.000000000  0.000000000     0.000000000  0.050000000  0.000000000
     0.000000000  0.000000000 20.000000000     0.000000000  0.000000000  0.050000000

  length of vectors
    20.000000000 20.000000000 20.000000000     0.050000000  0.050000000  0.050000000


 
 k-points in units of 2pi/SCALE and weight: Gamma-point only                        
   0.00000000  0.00000000  0.00000000       1.000
 
 k-points in reciprocal lattice and weights: Gamma-point only                        
   0.00000000  0.00000000  0.00000000       1.000
 
 position of ions in fractional coordinates (direct lattice) 
   0.47955235  0.58307700  0.51224015
   0.50393950  0.52460910  0.47199245
   0.57653705  0.51319025  0.48639365
   0.58953505  0.49841335  0.55951550
   0.46531255  0.46201510  0.48212110
   0.39226590  0.46941235  0.46372060
   0.35682105  0.40635970  0.47468805
   0.43687440  0.60630325  0.48725255
   0.47035830  0.57032580  0.56526130
   0.52101540  0.62075100  0.51258525
   0.49985335  0.53886755  0.41843620
   0.60286490  0.56169815  0.47551475
   0.59914975  0.47570490  0.45315590
   0.56050835  0.45260585  0.57224130
   0.57220200  0.53867500  0.59229180
   0.67982770  0.47351340  0.53096055
   0.46709320  0.44155155  0.53296125
   0.48661565  0.42373750  0.44762980
   0.36849795  0.50839315  0.49555515
   0.38554755  0.48640795  0.41136515
   0.32838370  0.35639480  0.48245825
   0.65724430  0.48799340  0.57165930
 
 position of ions in cartesian coordinates  (Angst):
   9.59104700 11.66154000 10.24480300
  10.07879000 10.49218200  9.43984900
  11.53074100 10.26380500  9.72787300
  11.79070100  9.96826700 11.19031000
   9.30625100  9.24030200  9.64242200
   7.84531800  9.38824700  9.27441200
   7.13642100  8.12719400  9.49376100
   8.73748800 12.12606500  9.74505100
   9.40716600 11.40651600 11.30522600
  10.42030800 12.41502000 10.25170500
   9.99706700 10.77735100  8.36872400
  12.05729800 11.23396300  9.51029500
  11.98299500  9.51409800  9.06311800
  11.21016700  9.05211700 11.44482600
  11.44404000 10.77350000 11.84583600
  13.59655400  9.47026800 10.61921100
   9.34186400  8.83103100 10.65922500
   9.73231300  8.47475000  8.95259600
   7.36995900 10.16786300  9.91110300
   7.71095100  9.72815900  8.22730300
   6.56767400  7.12789600  9.64916500
  13.14488600  9.75986800 11.43318600
 


--------------------------------------------------------------------------------------------------------


 k-point   1 :   0.0000 0.0000 0.0000  plane waves:  203269

 maximum and minimum number of plane-waves per node :     50840    50799

 maximum number of plane-waves:    203269
 maximum index in each direction: 
   IXMAX=   36   IYMAX=   36   IZMAX=   36
   IXMIN=  -36   IYMIN=  -36   IZMIN=  -36


 parallel 3D FFT for wavefunctions:
    minimum data exchange during FFTs selected (reduces bandwidth)
 parallel 3D FFT for charge:
    minimum data exchange during FFTs selected (reduces bandwidth)


 FFT grid for exact exchange (Hartree Fock) 
  NGX =112; NGY =112; NGZ =112

 
 Radii for the augmentation spheres in the non-local exchange
 for species   1 augmentation radius   0.874 (default was   0.699)
       energy cutoff for augmentation   2000.0
 for species   2 augmentation radius   0.650 (default was   0.520)
       energy cutoff for augmentation   2000.0
 for species   3 augmentation radius   0.886 (default was   0.709)
       energy cutoff for augmentation   2000.0
 for species   4 augmentation radius   0.902 (default was   0.722)
       energy cutoff for augmentation   2000.0

 real space projection operators:
  total allocation   :        497.25 KBytes
  max/ min on nodes  :        127.27        122.55

 Maximum index for augmentation-charges in exchange          135
  SETUP_FOCK is finished

 total amount of memory used by VASP MPI-rank0   248650. kBytes
=======================================================================

   base      :      30000. kBytes
   nonl-proj :      30905. kBytes
   fftplans  :      75720. kBytes
   grid      :      99427. kBytes
   one-center:         18. kBytes
   HF        :         13. kBytes
   nonlr-proj:        360. kBytes
   wavefun   :      12207. kBytes
 
     INWAV:  cpu time      0.0000: real time      0.0000
 Broyden mixing: mesh for mixing (old mesh)
   NGX = 73   NGY = 73   NGZ = 73
  (NGX  =300   NGY  =300   NGZ  =300)
  gives a total of 389017 points

 initial charge density was supplied:
 charge density of overlapping atoms calculated
 number of electron      52.0000000 magnetization 
 keeping initial charge density in first step


--------------------------------------------------------------------------------------------------------


 Maximum index for augmentation-charges          337 (set IRDMAX)


--------------------------------------------------------------------------------------------------------


    FEWALD:  cpu time      0.0003: real time      0.0003


--------------------------------------- Ionic step        1  -------------------------------------------




--------------------------------------- Iteration      1(   1)  ---------------------------------------


    POTLOK:  cpu time      0.4060: real time      0.4083
    SETDIJ:  cpu time      0.0021: real time      0.0022
    TRIAL :  cpu time      0.9027: real time      0.9092
    CORREC:  cpu time      0.0017: real time      0.0019
    --------------------------------------------
      LOOP:  cpu time      1.3170: real time      1.3358

 eigenvalue-minimisations  :    80
 total energy-change (2. order) : 0.7299277E+03  (-0.6739643E+03)
 number of electron      52.0000000 magnetization 
 augmentation part       52.0000000 magnetization 

 DIPCOR: dipole corrections for dipol
 direction  1 min pos     1, direction  2 min pos     1, direction  3 min pos     1,
 dipolmoment           0.000044      0.000035     -0.000004 electrons x Angstroem
 Tr[quadrupol]        41.397923

 energy correction for charged system         0.000000 eV
 dipol+quadrupol energy correction           -0.000000 eV
 added-field ion interaction          0.000006 eV  (added to PSCEN)


 Free energy of the ion-electron system (eV)
  ---------------------------------------------------
  alpha Z        PSCENC =         1.43088501
  Ewald energy   TEWEN  =      3937.14618009
  -Hartree energ DENC   =     -5231.28877073
  -exchange      EXHF   =         0.00000000
  -V(xc)+E(xc)   XCENC  =       169.80866065
  PAW double counting   =      1338.87888983    -1518.00738976
  entropy T*S    EENTRO =        -0.00322703
  eigenvalues    EBANDS =       158.41187543
  atomic energy  EATOM  =      1873.55058303
  ---------------------------------------------------
  free energy    TOTEN  =       729.92768651 eV

  energy without entropy =      729.93091354  energy(sigma->0) =      729.92930003
  exchange ACFDT corr.  =         0.00000000  see jH, gK, PRB 81, 115126


--------------------------------------------------------------------------------------------------------




--------------------------------------- Iteration      1(   2)  ---------------------------------------


    TRIAL :  cpu time      1.4830: real time      1.4930
    CORREC:  cpu time      0.0010: real time      0.0011
    --------------------------------------------
      LOOP:  cpu time      1.4841: real time      1.4946

 eigenvalue-minimisations  :   160
 total energy-change (2. order) :-0.2385004E+03  (-0.2263903E+03)
 number of electron      52.0000000 magnetization 
 augmentation part       52.0000000 magnetization 

 DIPCOR: dipole corrections for dipol
 direction  1 min pos     1, direction  2 min pos     1, direction  3 min pos     1,
 dipolmoment           0.000044      0.000035     -0.000004 electrons x Angstroem
 Tr[quadrupol]        41.397923

 energy correction for charged system         0.000000 eV
 dipol+quadrupol energy correction           -0.000000 eV
 added-field ion interaction          0.000006 eV  (added to PSCEN)


 Free energy of the ion-electron system (eV)
  ---------------------------------------------------
  alpha Z        PSCENC =         1.43088501
  Ewald energy   TEWEN  =      3937.14618009
  -Hartree energ DENC   =     -5231.28877073
  -exchange      EXHF   =         0.00000000
  -V(xc)+E(xc)   XCENC  =       169.80866065
  PAW double counting   =      1338.87888983    -1518.00738976
  entropy T*S    EENTRO =        -0.01913220
  eigenvalues    EBANDS =       -80.07260875
  atomic energy  EATOM  =      1873.55058303
  ---------------------------------------------------
  free energy    TOTEN  =       491.42729717 eV

  energy without entropy =      491.44642937  energy(sigma->0) =      491.43686327
  exchange ACFDT corr.  =         0.00000000  see jH, gK, PRB 81, 115126


--------------------------------------------------------------------------------------------------------




--------------------------------------- Iteration      1(   3)  ---------------------------------------


    TRIAL :  cpu time      1.4799: real time      1.4908
    CORREC:  cpu time      0.0009: real time      0.0011
    --------------------------------------------
      LOOP:  cpu time      1.4809: real time      1.4920

 eigenvalue-minimisations  :   160
 total energy-change (2. order) :-0.2951991E+03  (-0.2745573E+03)
 number of electron      52.0000000 magnetization 
 augmentation part       52.0000000 magnetization 

 DIPCOR: dipole corrections for dipol
 direction  1 min pos     1, direction  2 min pos     1, direction  3 min pos     1,
 dipolmoment           0.000044      0.000035     -0.000004 electrons x Angstroem
 Tr[quadrupol]        41.397923

 energy correction for charged system         0.000000 eV
 dipol+quadrupol energy correction           -0.000000 eV
 added-field ion interaction          0.000006 eV  (added to PSCEN)


 Free energy of the ion-electron system (eV)
  ---------------------------------------------------
  alpha Z        PSCENC =         1.43088501
  Ewald energy   TEWEN  =      3937.14618009
  -Hartree energ DENC   =     -5231.28877073
  -exchange      EXHF   =         0.00000000
  -V(xc)+E(xc)   XCENC  =       169.80866065
  PAW double counting   =      1338.87888983    -1518.00738976
  entropy T*S    EENTRO =        -0.00014230
  eigenvalues    EBANDS =      -375.29072593
  atomic energy  EATOM  =      1873.55058303
  ---------------------------------------------------
  free energy    TOTEN  =       196.22816988 eV

  energy without entropy =      196.22831218  energy(sigma->0) =      196.22824103
  exchange ACFDT corr.  =         0.00000000  see jH, gK, PRB 81, 115126


--------------------------------------------------------------------------------------------------------




--------------------------------------- Iteration      1(   4)  ---------------------------------------


    TRIAL :  cpu time      1.4811: real time      1.4915
    CORREC:  cpu time      0.0010: real time      0.0011
    --------------------------------------------
      LOOP:  cpu time      1.4822: real time      1.4927

 eigenvalue-minimisations  :   160
 total energy-change (2. order) :-0.2651381E+03  (-0.2514912E+03)
 number of electron      52.0000000 magnetization 
 augmentation part       52.0000000 magnetization 

 DIPCOR: dipole corrections for dipol
 direction  1 min pos     1, direction  2 min pos     1, direction  3 min pos     1,
 dipolmoment           0.000044      0.000035     -0.000004 electrons x Angstroem
 Tr[quadrupol]        41.397923

 energy correction for charged system         0.000000 eV
 dipol+quadrupol energy correction           -0.000000 eV
 added-field ion interaction          0.000006 eV  (added to PSCEN)


 Free energy of the ion-electron system (eV)
  ---------------------------------------------------
  alpha Z        PSCENC =         1.43088501
  Ewald energy   TEWEN  =      3937.14618009
  -Hartree energ DENC   =     -5231.28877073
  -exchange      EXHF   =         0.00000000
  -V(xc)+E(xc)   XCENC  =       169.80866065
  PAW double counting   =      1338.87888983    -1518.00738976
  entropy T*S    EENTRO =        -0.00430380
  eigenvalues    EBANDS =      -640.42467216
  atomic energy  EATOM  =      1873.55058303
  ---------------------------------------------------
  free energy    TOTEN  =       -68.90993785 eV

  energy without entropy =      -68.90563405  energy(sigma->0) =      -68.90778595
  exchange ACFDT corr.  =         0.00000000  see jH, gK, PRB 81, 115126


--------------------------------------------------------------------------------------------------------




--------------------------------------- Iteration      1(   5)  ---------------------------------------


    POTLOK:  cpu time      0.8028: real time      0.8064
    SETDIJ:  cpu time      0.0023: real time      0.0023
    TRIAL :  cpu time      6.4921: real time      6.5348
    CORREC:  cpu time      0.0003: real time      0.0004
    CHARGE:  cpu time      0.1135: real time      0.1142
    --------------------------------------------
      LOOP:  cpu time      7.4110: real time      7.4582

 eigenvalue-minimisations  :   160
 total energy-change (2. order) : 0.1871416E+02  (-0.1584539E+03)
 number of electron      52.0000003 magnetization 
 augmentation part        1.8825015 magnetization 

 DIPCOR: dipole corrections for dipol
 direction  1 min pos     1, direction  2 min pos     1, direction  3 min pos     1,
 dipolmoment           0.000044      0.000035     -0.000004 electrons x Angstroem
 Tr[quadrupol]        41.397923

 energy correction for charged system         0.000000 eV
 dipol+quadrupol energy correction           -0.000000 eV
 added-field ion interaction          0.000006 eV  (added to PSCEN)


 Free energy of the ion-electron system (eV)
  ---------------------------------------------------
  alpha Z        PSCENC =         1.43088501
  Ewald energy   TEWEN  =      3937.14618009
  -Hartree energ DENC   =     -5231.28877073
  -exchange      EXHF   =        77.05165630
  -V(xc)+E(xc)   XCENC  =       135.46035677
  PAW double counting   =      1366.38636055    -1374.74202627
  entropy T*S    EENTRO =        -0.00000000
  eigenvalues    EBANDS =      -835.19100170
  atomic energy  EATOM  =      1873.55058303
  ---------------------------------------------------
  free energy    TOTEN  =       -50.19577695 eV

  energy without entropy =      -50.19577695  energy(sigma->0) =      -50.19577695
  exchange ACFDT corr.  =        -0.00984213  see jH, gK, PRB 81, 115126


--------------------------------------------------------------------------------------------------------




--------------------------------------- Iteration      1(   6)  ---------------------------------------


    POTLOK:  cpu time      1.5667: real time      1.5725
    SETDIJ:  cpu time      0.0022: real time      0.0022
    TRIAL :  cpu time      5.1634: real time      5.1956
    CORREC:  cpu time      0.0002: real time      0.0002
    CHARGE:  cpu time      0.1109: real time      0.1119
    --------------------------------------------
      LOOP:  cpu time      6.8437: real time      6.8827

 eigenvalue-minimisations  :     0
 total energy-change (2. order) : 0.2288412E+02  (-0.2716856E+03)
 number of electron      52.0000003 magnetization 
 augmentation part        1.8393865 magnetization 

 DIPCOR: dipole corrections for dipol
 direction  1 min pos     1, direction  2 min pos     1, direction  3 min pos     1,
 dipolmoment          -0.026372     -0.362799     -0.843558 electrons x Angstroem
 Tr[quadrupol]       449.531426

 energy correction for charged system         0.000000 eV
 dipol+quadrupol energy correction           -0.003182 eV
 added-field ion interaction         -0.025150 eV  (added to PSCEN)


 Free energy of the ion-electron system (eV)
  ---------------------------------------------------
  alpha Z        PSCENC =         1.40254763
  Ewald energy   TEWEN  =      3937.14618009
  -Hartree energ DENC   =     -4664.57891163
  -exchange      EXHF   =       101.73402044
  -V(xc)+E(xc)   XCENC  =       135.26713409
  PAW double counting   =      3863.64155238    -3874.46495391
  entropy T*S    EENTRO =        -0.00000000
  eigenvalues    EBANDS =     -1401.00981301
  atomic energy  EATOM  =      1873.55058303
  ---------------------------------------------------
  free energy    TOTEN  =       -27.31166090 eV

  energy without entropy =      -27.31166090  energy(sigma->0) =      -27.31166090
  exchange ACFDT corr.  =        -0.00000000  see jH, gK, PRB 81, 115126


--------------------------------------------------------------------------------------------------------




--------------------------------------- Iteration      1(   7)  ---------------------------------------


    POTLOK:  cpu time      1.3338: real time      1.3390
    SETDIJ:  cpu time      0.0024: real time      0.0024
    TRIAL :  cpu time      5.1493: real time      5.1819
    CORREC:  cpu time      0.0003: real time      0.0003
    CHARGE:  cpu time      0.1109: real time      0.1120
    --------------------------------------------
      LOOP:  cpu time      6.5972: real time      6.6379

 eigenvalue-minimisations  :     0
 total energy-change (2. order) :-0.8382921E+02  (-0.3492898E+02)
 number of electron      52.0000003 magnetization 
 augmentation part        1.7182768 magnetization 

 DIPCOR: dipole corrections for dipol
 direction  1 min pos     1, direction  2 min pos     1, direction  3 min pos     1,
 dipolmoment          -0.595300     -0.682865     -0.155214 electrons x Angstroem
 Tr[quadrupol]       163.239403

 energy correction for charged system         0.000000 eV
 dipol+quadrupol energy correction           -0.003185 eV
 added-field ion interaction         -0.102990 eV  (added to PSCEN)


 Free energy of the ion-electron system (eV)
  ---------------------------------------------------
  alpha Z        PSCENC =         1.32470468
  Ewald energy   TEWEN  =      3937.14618009
  -Hartree energ DENC   =     -5243.61985211
  -exchange      EXHF   =       109.05290583
  -V(xc)+E(xc)   XCENC  =       142.03916993
  PAW double counting   =      4128.07488114    -4138.49505434
  entropy T*S    EENTRO =        -0.00000000
  eigenvalues    EBANDS =      -920.21438856
  atomic energy  EATOM  =      1873.55058303
  ---------------------------------------------------
  free energy    TOTEN  =      -111.14087031 eV

  energy without entropy =     -111.14087031  energy(sigma->0) =     -111.14087031
  exchange ACFDT corr.  =        -0.00000000  see jH, gK, PRB 81, 115126


--------------------------------------------------------------------------------------------------------




--------------------------------------- Iteration      1(   8)  ---------------------------------------


    POTLOK:  cpu time      0.9439: real time      0.9479
    SETDIJ:  cpu time      0.0026: real time      0.0026
    TRIAL :  cpu time      5.1589: real time      5.1921
    CORREC:  cpu time      0.0003: real time      0.0003
    CHARGE:  cpu time      0.1104: real time      0.1113
    --------------------------------------------
      LOOP:  cpu time      6.2164: real time      6.2544

 eigenvalue-minimisations  :     0
 total energy-change (2. order) :-0.1739235E+02  (-0.2238846E+02)
 number of electron      52.0000003 magnetization 
 augmentation part        1.7466909 magnetization 

 DIPCOR: dipole corrections for dipol
 direction  1 min pos     1, direction  2 min pos     1, direction  3 min pos     1,
 dipolmoment          -0.115515     -0.743901     -0.018909 electrons x Angstroem
 Tr[quadrupol]        99.601540

 energy correction for charged system         0.000000 eV
 dipol+quadrupol energy correction           -0.002138 eV
 added-field ion interaction         -0.090593 eV  (added to PSCEN)


 Free energy of the ion-electron system (eV)
  ---------------------------------------------------
  alpha Z        PSCENC =         1.33814805
  Ewald energy   TEWEN  =      3937.14618009
  -Hartree energ DENC   =     -5316.15467623
  -exchange      EXHF   =       109.35974384
  -V(xc)+E(xc)   XCENC  =       141.45635645
  PAW double counting   =      4089.12475168    -4098.84179964
  entropy T*S    EENTRO =        -0.00000000
  eigenvalues    EBANDS =      -865.51251014
  atomic energy  EATOM  =      1873.55058303
  ---------------------------------------------------
  free energy    TOTEN  =      -128.53322287 eV

  energy without entropy =     -128.53322287  energy(sigma->0) =     -128.53322287
  exchange ACFDT corr.  =        -0.00000000  see jH, gK, PRB 81, 115126


--------------------------------------------------------------------------------------------------------




--------------------------------------- Iteration      1(   9)  ---------------------------------------


    POTLOK:  cpu time      0.8582: real time      0.8619
    SETDIJ:  cpu time      0.0039: real time      0.0042
    TRIAL :  cpu time      5.1566: real time      5.1931
    CORREC:  cpu time      0.0003: real time      0.0003
    CHARGE:  cpu time      0.1105: real time      0.1115
    --------------------------------------------
      LOOP:  cpu time      6.1298: real time      6.1826

 eigenvalue-minimisations  :     0
 total energy-change (2. order) :-0.1117767E+02  (-0.4993416E+01)
 number of electron      52.0000003 magnetization 
 augmentation part        1.7746764 magnetization 

 DIPCOR: dipole corrections for dipol
 direction  1 min pos     1, direction  2 min pos     1, direction  3 min pos     1,
 dipolmoment          -0.271639     -0.778566      0.311287 electrons x Angstroem
 Tr[quadrupol]        44.084369

 energy correction for charged system         0.000000 eV
 dipol+quadrupol energy correction           -0.002929 eV
 added-field ion interaction         -0.108816 eV  (added to PSCEN)


 Free energy of the ion-electron system (eV)
  ---------------------------------------------------
  alpha Z        PSCENC =         1.31913464
  Ewald energy   TEWEN  =      3937.14618009
  -Hartree energ DENC   =     -5443.85363578
  -exchange      EXHF   =       112.10885415
  -V(xc)+E(xc)   XCENC  =       143.95119621
  PAW double counting   =      4115.62193013    -4125.28905080
  entropy T*S    EENTRO =        -0.00000000
  eigenvalues    EBANDS =      -754.26608639
  atomic energy  EATOM  =      1873.55058303
  ---------------------------------------------------
  free energy    TOTEN  =      -139.71089472 eV

  energy without entropy =     -139.71089472  energy(sigma->0) =     -139.71089472
  exchange ACFDT corr.  =        -0.00000000  see jH, gK, PRB 81, 115126


--------------------------------------------------------------------------------------------------------




--------------------------------------- Iteration      1(  10)  ---------------------------------------


    POTLOK:  cpu time      0.8576: real time      0.8613
    SETDIJ:  cpu time      0.0045: real time      0.0045
    TRIAL :  cpu time      5.1599: real time      5.1908
    CORREC:  cpu time      0.0003: real time      0.0004
    CHARGE:  cpu time      0.1108: real time      0.1115
    --------------------------------------------
      LOOP:  cpu time      6.1332: real time      6.1686

 eigenvalue-minimisations  :     0
 total energy-change (2. order) :-0.2312417E+01  (-0.2182923E+01)
 number of electron      52.0000003 magnetization 
 augmentation part        1.7956703 magnetization 

 DIPCOR: dipole corrections for dipol
 direction  1 min pos     1, direction  2 min pos     1, direction  3 min pos     1,
 dipolmoment          -0.407086     -0.766234      0.397362 electrons x Angstroem
 Tr[quadrupol]        41.915833

 energy correction for charged system         0.000000 eV
 dipol+quadrupol energy correction           -0.003433 eV
 added-field ion interaction         -0.115510 eV  (added to PSCEN)


 Free energy of the ion-electron system (eV)
  ---------------------------------------------------
  alpha Z        PSCENC =         1.31193575
  Ewald energy   TEWEN  =      3937.14618009
  -Hartree energ DENC   =     -5455.47576077
  -exchange      EXHF   =       112.93075588
  -V(xc)+E(xc)   XCENC  =       144.76657256
  PAW double counting   =      4089.60445233    -4099.32796547
  entropy T*S    EENTRO =        -0.00000000
  eigenvalues    EBANDS =      -746.53006475
  atomic energy  EATOM  =      1873.55058303
  ---------------------------------------------------
  free energy    TOTEN  =      -142.02331136 eV

  energy without entropy =     -142.02331136  energy(sigma->0) =     -142.02331136
  exchange ACFDT corr.  =        -0.00000000  see jH, gK, PRB 81, 115126


--------------------------------------------------------------------------------------------------------




--------------------------------------- Iteration      1(  11)  ---------------------------------------


    POTLOK:  cpu time      0.8593: real time      0.8626
    SETDIJ:  cpu time      0.0040: real time      0.0040
    TRIAL :  cpu time      5.1561: real time      5.1869
    CORREC:  cpu time      0.0002: real time      0.0002
    CHARGE:  cpu time      0.1104: real time      0.1114
    --------------------------------------------
      LOOP:  cpu time      6.1303: real time      6.1654

 eigenvalue-minimisations  :     0
 total energy-change (2. order) :-0.1353712E+01  (-0.1163148E+01)
 number of electron      52.0000003 magnetization 
 augmentation part        1.8064593 magnetization 

 DIPCOR: dipole corrections for dipol
 direction  1 min pos     1, direction  2 min pos     1, direction  3 min pos     1,
 dipolmoment          -0.399068     -0.756286      0.430873 electrons x Angstroem
 Tr[quadrupol]        38.723086

 energy correction for charged system         0.000000 eV
 dipol+quadrupol energy correction           -0.003456 eV
 added-field ion interaction         -0.114700 eV  (added to PSCEN)


 Free energy of the ion-electron system (eV)
  ---------------------------------------------------
  alpha Z        PSCENC =         1.31272266
  Ewald energy   TEWEN  =      3937.14618009
  -Hartree energ DENC   =     -5465.40949852
  -exchange      EXHF   =       113.34371757
  -V(xc)+E(xc)   XCENC  =       145.17842492
  PAW double counting   =      4073.34366451    -4083.14109800
  entropy T*S    EENTRO =        -0.00000000
  eigenvalues    EBANDS =      -738.70171954
  atomic energy  EATOM  =      1873.55058303
  ---------------------------------------------------
  free energy    TOTEN  =      -143.37702328 eV

  energy without entropy =     -143.37702328  energy(sigma->0) =     -143.37702328
  exchange ACFDT corr.  =        -0.00000000  see jH, gK, PRB 81, 115126


--------------------------------------------------------------------------------------------------------




--------------------------------------- Iteration      1(  12)  ---------------------------------------


    POTLOK:  cpu time      0.8592: real time      0.8625
    SETDIJ:  cpu time      0.0039: real time      0.0039
    TRIAL :  cpu time      5.1520: real time      5.1836
    CORREC:  cpu time      0.0003: real time      0.0003
    CHARGE:  cpu time      0.1104: real time      0.1113
    --------------------------------------------
      LOOP:  cpu time      6.1259: real time      6.1618

 eigenvalue-minimisations  :     0
 total energy-change (2. order) :-0.7212035E+00  (-0.4155585E+00)
 number of electron      52.0000003 magnetization 
 augmentation part        1.8098647 magnetization 

 DIPCOR: dipole corrections for dipol
 direction  1 min pos     1, direction  2 min pos     1, direction  3 min pos     1,
 dipolmoment          -0.374053     -0.763270      0.449804 electrons x Angstroem
 Tr[quadrupol]        35.442083

 energy correction for charged system         0.000000 eV
 dipol+quadrupol energy correction           -0.003486 eV
 added-field ion interaction         -0.114741 eV  (added to PSCEN)


 Free energy of the ion-electron system (eV)
  ---------------------------------------------------
  alpha Z        PSCENC =         1.31265141
  Ewald energy   TEWEN  =      3937.14618009
  -Hartree energ DENC   =     -5472.63158454
  -exchange      EXHF   =       113.51933637
  -V(xc)+E(xc)   XCENC  =       145.34537488
  PAW double counting   =      4063.64343035    -4073.48175014
  entropy T*S    EENTRO =        -0.00000000
  eigenvalues    EBANDS =      -732.50244820
  atomic energy  EATOM  =      1873.55058303
  ---------------------------------------------------
  free energy    TOTEN  =      -144.09822674 eV

  energy without entropy =     -144.09822674  energy(sigma->0) =     -144.09822674
  exchange ACFDT corr.  =        -0.00000000  see jH, gK, PRB 81, 115126


--------------------------------------------------------------------------------------------------------




--------------------------------------- Iteration      1(  13)  ---------------------------------------


    POTLOK:  cpu time      0.8576: real time      0.8607
    SETDIJ:  cpu time      0.0024: real time      0.0024
    TRIAL :  cpu time      5.1716: real time      5.2017
    CORREC:  cpu time      0.0003: real time      0.0003
    CHARGE:  cpu time      0.1104: real time      0.1114
    --------------------------------------------
      LOOP:  cpu time      6.1428: real time      6.1869

 eigenvalue-minimisations  :     0
 total energy-change (2. order) :-0.2449752E+00  (-0.1520335E+00)
 number of electron      52.0000003 magnetization 
 augmentation part        1.8104720 magnetization 

 DIPCOR: dipole corrections for dipol
 direction  1 min pos     1, direction  2 min pos     1, direction  3 min pos     1,
 dipolmoment          -0.357534     -0.769790      0.450475 electrons x Angstroem
 Tr[quadrupol]        34.524573

 energy correction for charged system         0.000000 eV
 dipol+quadrupol energy correction           -0.003481 eV
 added-field ion interaction         -0.114737 eV  (added to PSCEN)


 Free energy of the ion-electron system (eV)
  ---------------------------------------------------
  alpha Z        PSCENC =         1.31266076
  Ewald energy   TEWEN  =      3937.14618009
  -Hartree energ DENC   =     -5472.70734138
  -exchange      EXHF   =       113.52286391
  -V(xc)+E(xc)   XCENC  =       145.33683014
  PAW double counting   =      4056.65353466    -4066.50382052
  entropy T*S    EENTRO =        -0.00000000
  eigenvalues    EBANDS =      -732.65469262
  atomic energy  EATOM  =      1873.55058303
  ---------------------------------------------------
  free energy    TOTEN  =      -144.34320194 eV

  energy without entropy =     -144.34320194  energy(sigma->0) =     -144.34320194
  exchange ACFDT corr.  =        -0.00000000  see jH, gK, PRB 81, 115126


--------------------------------------------------------------------------------------------------------




--------------------------------------- Iteration      1(  14)  ---------------------------------------


    POTLOK:  cpu time      0.8951: real time      0.8983
    SETDIJ:  cpu time      0.0025: real time      0.0025
    TRIAL :  cpu time      5.1785: real time      5.2079
    CORREC:  cpu time      0.0002: real time      0.0002
    CHARGE:  cpu time      0.1105: real time      0.1113
    --------------------------------------------
      LOOP:  cpu time      6.1869: real time      6.2203

 eigenvalue-minimisations  :     0
 total energy-change (2. order) :-0.9567415E-01  (-0.7243620E-01)
 number of electron      52.0000003 magnetization 
 augmentation part        1.8104171 magnetization 

 DIPCOR: dipole corrections for dipol
 direction  1 min pos     1, direction  2 min pos     1, direction  3 min pos     1,
 dipolmoment          -0.348474     -0.764762      0.443425 electrons x Angstroem
 Tr[quadrupol]        34.337974

 energy correction for charged system         0.000000 eV
 dipol+quadrupol energy correction           -0.003404 eV
 added-field ion interaction         -0.113590 eV  (added to PSCEN)


 Free energy of the ion-electron system (eV)
  ---------------------------------------------------
  alpha Z        PSCENC =         1.31388548
  Ewald energy   TEWEN  =      3937.14618009
  -Hartree energ DENC   =     -5471.42938046
  -exchange      EXHF   =       113.49587069
  -V(xc)+E(xc)   XCENC  =       145.30004118
  PAW double counting   =      4054.32798557    -4064.18122821
  entropy T*S    EENTRO =        -0.00000000
  eigenvalues    EBANDS =      -733.96281347
  atomic energy  EATOM  =      1873.55058303
  ---------------------------------------------------
  free energy    TOTEN  =      -144.43887609 eV

  energy without entropy =     -144.43887609  energy(sigma->0) =     -144.43887609
  exchange ACFDT corr.  =        -0.00000000  see jH, gK, PRB 81, 115126


--------------------------------------------------------------------------------------------------------




--------------------------------------- Iteration      1(  15)  ---------------------------------------


    POTLOK:  cpu time      0.8580: real time      0.8613
    SETDIJ:  cpu time      0.0025: real time      0.0025
    TRIAL :  cpu time      5.1607: real time      5.1901
    CORREC:  cpu time      0.0002: real time      0.0002
    CHARGE:  cpu time      0.1105: real time      0.1114
    --------------------------------------------
      LOOP:  cpu time      6.1321: real time      6.1657

 eigenvalue-minimisations  :     0
 total energy-change (2. order) :-0.4951227E-01  (-0.3429288E-01)
 number of electron      52.0000003 magnetization 
 augmentation part        1.8101076 magnetization 

 DIPCOR: dipole corrections for dipol
 direction  1 min pos     1, direction  2 min pos     1, direction  3 min pos     1,
 dipolmoment          -0.345183     -0.755779      0.437811 electrons x Angstroem
 Tr[quadrupol]        34.229328

 energy correction for charged system         0.000000 eV
 dipol+quadrupol energy correction           -0.003325 eV
 added-field ion interaction         -0.112284 eV  (added to PSCEN)


 Free energy of the ion-electron system (eV)
  ---------------------------------------------------
  alpha Z        PSCENC =         1.31527005
  Ewald energy   TEWEN  =      3937.14618009
  -Hartree energ DENC   =     -5471.18592574
  -exchange      EXHF   =       113.48750088
  -V(xc)+E(xc)   XCENC  =       145.28600922
  PAW double counting   =      4055.93858630    -4065.79411703
  entropy T*S    EENTRO =        -0.00000000
  eigenvalues    EBANDS =      -734.23247517
  atomic energy  EATOM  =      1873.55058303
  ---------------------------------------------------
  free energy    TOTEN  =      -144.48838836 eV

  energy without entropy =     -144.48838836  energy(sigma->0) =     -144.48838836
  exchange ACFDT corr.  =        -0.00000000  see jH, gK, PRB 81, 115126


--------------------------------------------------------------------------------------------------------




--------------------------------------- Iteration      1(  16)  ---------------------------------------


    POTLOK:  cpu time      0.8572: real time      0.8602
    SETDIJ:  cpu time      0.0036: real time      0.0036
    TRIAL :  cpu time      5.1563: real time      5.1853
    CORREC:  cpu time      0.0003: real time      0.0003
    CHARGE:  cpu time      0.1106: real time      0.1114
    --------------------------------------------
      LOOP:  cpu time      6.1283: real time      6.1612

 eigenvalue-minimisations  :     0
 total energy-change (2. order) :-0.2443475E-01  (-0.1573649E-01)
 number of electron      52.0000003 magnetization 
 augmentation part        1.8096672 magnetization 

 DIPCOR: dipole corrections for dipol
 direction  1 min pos     1, direction  2 min pos     1, direction  3 min pos     1,
 dipolmoment          -0.344511     -0.749158      0.435289 electrons x Angstroem
 Tr[quadrupol]        34.171186

 energy correction for charged system         0.000000 eV
 dipol+quadrupol energy correction           -0.003277 eV
 added-field ion interaction         -0.111438 eV  (added to PSCEN)


 Free energy of the ion-electron system (eV)
  ---------------------------------------------------
  alpha Z        PSCENC =         1.31616373
  Ewald energy   TEWEN  =      3937.14618009
  -Hartree energ DENC   =     -5471.38445153
  -exchange      EXHF   =       113.48810126
  -V(xc)+E(xc)   XCENC  =       145.28297530
  PAW double counting   =      4058.69562193    -4068.55236223
  entropy T*S    EENTRO =        -0.00000000
  eigenvalues    EBANDS =      -734.05563469
  atomic energy  EATOM  =      1873.55058303
  ---------------------------------------------------
  free energy    TOTEN  =      -144.51282311 eV

  energy without entropy =     -144.51282311  energy(sigma->0) =     -144.51282311
  exchange ACFDT corr.  =        -0.00000000  see jH, gK, PRB 81, 115126


--------------------------------------------------------------------------------------------------------




--------------------------------------- Iteration      1(  17)  ---------------------------------------


    POTLOK:  cpu time      0.8588: real time      0.8618
    SETDIJ:  cpu time      0.0021: real time      0.0021
    TRIAL :  cpu time      5.1504: real time      5.1801
    CORREC:  cpu time      0.0003: real time      0.0003
    CHARGE:  cpu time      0.1106: real time      0.1115
    --------------------------------------------
      LOOP:  cpu time      6.1231: real time      6.1568

 eigenvalue-minimisations  :     0
 total energy-change (2. order) :-0.1166062E-01  (-0.7648658E-02)
 number of electron      52.0000003 magnetization 
 augmentation part        1.8093171 magnetization 

 DIPCOR: dipole corrections for dipol
 direction  1 min pos     1, direction  2 min pos     1, direction  3 min pos     1,
 dipolmoment          -0.344096     -0.745631      0.434390 electrons x Angstroem
 Tr[quadrupol]        34.151022

 energy correction for charged system         0.000000 eV
 dipol+quadrupol energy correction           -0.003253 eV
 added-field ion interaction         -0.110992 eV  (added to PSCEN)


 Free energy of the ion-electron system (eV)
  ---------------------------------------------------
  alpha Z        PSCENC =         1.31663312
  Ewald energy   TEWEN  =      3937.14618009
  -Hartree energ DENC   =     -5471.46346590
  -exchange      EXHF   =       113.48824521
  -V(xc)+E(xc)   XCENC  =       145.28042701
  PAW double counting   =      4060.77061483    -4070.62698895
  entropy T*S    EENTRO =        -0.00000000
  eigenvalues    EBANDS =      -733.98671216
  atomic energy  EATOM  =      1873.55058303
  ---------------------------------------------------
  free energy    TOTEN  =      -144.52448373 eV

  energy without entropy =     -144.52448373  energy(sigma->0) =     -144.52448373
  exchange ACFDT corr.  =        -0.00000000  see jH, gK, PRB 81, 115126


--------------------------------------------------------------------------------------------------------




--------------------------------------- Iteration      1(  18)  ---------------------------------------


    POTLOK:  cpu time      0.8566: real time      0.8596
    SETDIJ:  cpu time      0.0024: real time      0.0024
    TRIAL :  cpu time      5.1579: real time      5.1882
    CORREC:  cpu time      0.0001: real time      0.0001
    CHARGE:  cpu time      0.1104: real time      0.1112
    --------------------------------------------
      LOOP:  cpu time      6.1276: real time      6.1617

 eigenvalue-minimisations  :     0
 total energy-change (2. order) :-0.5934326E-02  (-0.4006172E-02)
 number of electron      52.0000003 magnetization 
 augmentation part        1.8091097 magnetization 

 DIPCOR: dipole corrections for dipol
 direction  1 min pos     1, direction  2 min pos     1, direction  3 min pos     1,
 dipolmoment          -0.343555     -0.743807      0.433926 electrons x Angstroem
 Tr[quadrupol]        34.147537

 energy correction for charged system         0.000000 eV
 dipol+quadrupol energy correction           -0.003240 eV
 added-field ion interaction         -0.110748 eV  (added to PSCEN)


 Free energy of the ion-electron system (eV)
  ---------------------------------------------------
  alpha Z        PSCENC =         1.31689083
  Ewald energy   TEWEN  =      3937.14618009
  -Hartree energ DENC   =     -5471.36932179
  -exchange      EXHF   =       113.48645048
  -V(xc)+E(xc)   XCENC  =       145.27676576
  PAW double counting   =      4062.01114586    -4071.86639382
  entropy T*S    EENTRO =        -0.00000000
  eigenvalues    EBANDS =      -734.08271850
  atomic energy  EATOM  =      1873.55058303
  ---------------------------------------------------
  free energy    TOTEN  =      -144.53041805 eV

  energy without entropy =     -144.53041805  energy(sigma->0) =     -144.53041805
  exchange ACFDT corr.  =        -0.00000000  see jH, gK, PRB 81, 115126


--------------------------------------------------------------------------------------------------------




--------------------------------------- Iteration      1(  19)  ---------------------------------------


    POTLOK:  cpu time      0.8558: real time      0.8590
    SETDIJ:  cpu time      0.0021: real time      0.0021
    TRIAL :  cpu time      5.1555: real time      5.1856
    CORREC:  cpu time      0.0003: real time      0.0003
    CHARGE:  cpu time      0.1100: real time      0.1114
    --------------------------------------------
      LOOP:  cpu time      6.1241: real time      6.1641

 eigenvalue-minimisations  :     0
 total energy-change (2. order) :-0.3225833E-02  (-0.2208294E-02)
 number of electron      52.0000003 magnetization 
 augmentation part        1.8089877 magnetization 

 DIPCOR: dipole corrections for dipol
 direction  1 min pos     1, direction  2 min pos     1, direction  3 min pos     1,
 dipolmoment          -0.343170     -0.742607      0.433340 electrons x Angstroem
 Tr[quadrupol]        34.147486

 energy correction for charged system         0.000000 eV
 dipol+quadrupol energy correction           -0.003231 eV
 added-field ion interaction         -0.110579 eV  (added to PSCEN)


 Free energy of the ion-electron system (eV)
  ---------------------------------------------------
  alpha Z        PSCENC =         1.31706888
  Ewald energy   TEWEN  =      3937.14618009
  -Hartree energ DENC   =     -5471.24646539
  -exchange      EXHF   =       113.48434533
  -V(xc)+E(xc)   XCENC  =       145.27347763
  PAW double counting   =      4062.77779788    -4072.63191998
  entropy T*S    EENTRO =        -0.00000000
  eigenvalues    EBANDS =      -734.20471136
  atomic energy  EATOM  =      1873.55058303
  ---------------------------------------------------
  free energy    TOTEN  =      -144.53364389 eV

  energy without entropy =     -144.53364389  energy(sigma->0) =     -144.53364389
  exchange ACFDT corr.  =        -0.00000000  see jH, gK, PRB 81, 115126


--------------------------------------------------------------------------------------------------------




--------------------------------------- Iteration      1(  20)  ---------------------------------------


    POTLOK:  cpu time      0.8557: real time      0.8583
    SETDIJ:  cpu time      0.0022: real time      0.0022
    TRIAL :  cpu time      5.1564: real time      5.1869
    CORREC:  cpu time      0.0002: real time      0.0002
    CHARGE:  cpu time      0.1104: real time      0.1113
    --------------------------------------------
      LOOP:  cpu time      6.1252: real time      6.1592

 eigenvalue-minimisations  :     0
 total energy-change (2. order) :-0.1840477E-02  (-0.1275718E-02)
 number of electron      52.0000003 magnetization 
 augmentation part        1.8088977 magnetization 

 DIPCOR: dipole corrections for dipol
 direction  1 min pos     1, direction  2 min pos     1, direction  3 min pos     1,
 dipolmoment          -0.343030     -0.741597      0.432684 electrons x Angstroem
 Tr[quadrupol]        34.144469

 energy correction for charged system         0.000000 eV
 dipol+quadrupol energy correction           -0.003223 eV
 added-field ion interaction         -0.110444 eV  (added to PSCEN)


 Free energy of the ion-electron system (eV)
  ---------------------------------------------------
  alpha Z        PSCENC =         1.31721267
  Ewald energy   TEWEN  =      3937.14618009
  -Hartree energ DENC   =     -5471.19704266
  -exchange      EXHF   =       113.48329296
  -V(xc)+E(xc)   XCENC  =       145.27153032
  PAW double counting   =      4063.29216064    -4073.14544739
  entropy T*S    EENTRO =        -0.00000000
  eigenvalues    EBANDS =      -734.25395402
  atomic energy  EATOM  =      1873.55058303
  ---------------------------------------------------
  free energy    TOTEN  =      -144.53548436 eV

  energy without entropy =     -144.53548436  energy(sigma->0) =     -144.53548436
  exchange ACFDT corr.  =        -0.00000000  see jH, gK, PRB 81, 115126


--------------------------------------------------------------------------------------------------------




--------------------------------------- Iteration      1(  21)  ---------------------------------------


    POTLOK:  cpu time      0.8546: real time      0.8579
    SETDIJ:  cpu time      0.0038: real time      0.0038
    TRIAL :  cpu time      5.1552: real time      5.1850
    CORREC:  cpu time      0.0003: real time      0.0003
    CHARGE:  cpu time      0.1105: real time      0.1114
    --------------------------------------------
      LOOP:  cpu time      6.1246: real time      6.1585

 eigenvalue-minimisations  :     0
 total energy-change (2. order) :-0.1089181E-02  (-0.7342502E-03)
 number of electron      52.0000003 magnetization 
 augmentation part        1.8088300 magnetization 

 DIPCOR: dipole corrections for dipol
 direction  1 min pos     1, direction  2 min pos     1, direction  3 min pos     1,
 dipolmoment          -0.343086     -0.740776      0.432043 electrons x Angstroem
 Tr[quadrupol]        34.139958

 energy correction for charged system         0.000000 eV
 dipol+quadrupol energy correction           -0.003216 eV
 added-field ion interaction         -0.110338 eV  (added to PSCEN)


 Free energy of the ion-electron system (eV)
  ---------------------------------------------------
  alpha Z        PSCENC =         1.31732503
  Ewald energy   TEWEN  =      3937.14618009
  -Hartree energ DENC   =     -5471.19803803
  -exchange      EXHF   =       113.48305480
  -V(xc)+E(xc)   XCENC  =       145.27073893
  PAW double counting   =      4063.62200998    -4073.47468275
  entropy T*S    EENTRO =        -0.00000000
  eigenvalues    EBANDS =      -734.25374462
  atomic energy  EATOM  =      1873.55058303
  ---------------------------------------------------
  free energy    TOTEN  =      -144.53657355 eV

  energy without entropy =     -144.53657355  energy(sigma->0) =     -144.53657355
  exchange ACFDT corr.  =        -0.00000000  see jH, gK, PRB 81, 115126


--------------------------------------------------------------------------------------------------------




--------------------------------------- Iteration      1(  22)  ---------------------------------------


    POTLOK:  cpu time      0.8557: real time      0.8590
    SETDIJ:  cpu time      0.0032: real time      0.0032
    TRIAL :  cpu time      5.1616: real time      5.1914
    CORREC:  cpu time      0.0002: real time      0.0002
    CHARGE:  cpu time      0.1105: real time      0.1111
    --------------------------------------------
      LOOP:  cpu time      6.1315: real time      6.1653

 eigenvalue-minimisations  :     0
 total energy-change (2. order) :-0.6431771E-03  (-0.4449585E-03)
 number of electron      52.0000003 magnetization 
 augmentation part        1.8087794 magnetization 

 DIPCOR: dipole corrections for dipol
 direction  1 min pos     1, direction  2 min pos     1, direction  3 min pos     1,
 dipolmoment          -0.343196     -0.740190      0.431573 electrons x Angstroem
 Tr[quadrupol]        34.137068

 energy correction for charged system         0.000000 eV
 dipol+quadrupol energy correction           -0.003211 eV
 added-field ion interaction         -0.110265 eV  (added to PSCEN)


 Free energy of the ion-electron system (eV)
  ---------------------------------------------------
  alpha Z        PSCENC =         1.31740229
  Ewald energy   TEWEN  =      3937.14618009
  -Hartree energ DENC   =     -5471.20344912
  -exchange      EXHF   =       113.48312876
  -V(xc)+E(xc)   XCENC  =       145.27060826
  PAW double counting   =      4063.80381191    -4073.65602714
  entropy T*S    EENTRO =        -0.00000000
  eigenvalues    EBANDS =      -734.24945480
  atomic energy  EATOM  =      1873.55058303
  ---------------------------------------------------
  free energy    TOTEN  =      -144.53721672 eV

  energy without entropy =     -144.53721672  energy(sigma->0) =     -144.53721672
  exchange ACFDT corr.  =        -0.00000000  see jH, gK, PRB 81, 115126


--------------------------------------------------------------------------------------------------------




--------------------------------------- Iteration      1(  23)  ---------------------------------------


    POTLOK:  cpu time      0.8579: real time      0.8615
    SETDIJ:  cpu time      0.0041: real time      0.0041
    TRIAL :  cpu time      5.1460: real time      5.1817
    CORREC:  cpu time      0.0001: real time      0.0001
    CHARGE:  cpu time      0.1105: real time      0.1117
    --------------------------------------------
      LOOP:  cpu time      6.1192: real time      6.1688

 eigenvalue-minimisations  :     0
 total energy-change (2. order) :-0.3963675E-03  (-0.2855611E-03)
 number of electron      52.0000003 magnetization 
 augmentation part        1.8087428 magnetization 

 DIPCOR: dipole corrections for dipol
 direction  1 min pos     1, direction  2 min pos     1, direction  3 min pos     1,
 dipolmoment          -0.343278     -0.739826      0.431320 electrons x Angstroem
 Tr[quadrupol]        34.136289

 energy correction for charged system         0.000000 eV
 dipol+quadrupol energy correction           -0.003209 eV
 added-field ion interaction         -0.110222 eV  (added to PSCEN)


 Free energy of the ion-electron system (eV)
  ---------------------------------------------------
  alpha Z        PSCENC =         1.31744826
  Ewald energy   TEWEN  =      3937.14618009
  -Hartree energ DENC   =     -5471.19503643
  -exchange      EXHF   =       113.48310554
  -V(xc)+E(xc)   XCENC  =       145.27036314
  PAW double counting   =      4063.88636531    -4073.73822129
  entropy T*S    EENTRO =        -0.00000000
  eigenvalues    EBANDS =      -734.25840074
  atomic energy  EATOM  =      1873.55058303
  ---------------------------------------------------
  free energy    TOTEN  =      -144.53761309 eV

  energy without entropy =     -144.53761309  energy(sigma->0) =     -144.53761309
  exchange ACFDT corr.  =        -0.00000000  see jH, gK, PRB 81, 115126


--------------------------------------------------------------------------------------------------------




--------------------------------------- Iteration      1(  24)  ---------------------------------------


    POTLOK:  cpu time      0.8545: real time      0.8583
    SETDIJ:  cpu time      0.0025: real time      0.0025
    TRIAL :  cpu time      5.1449: real time      5.1811
    CORREC:  cpu time      0.0003: real time      0.0003
    CHARGE:  cpu time      0.1104: real time      0.1114
    --------------------------------------------
      LOOP:  cpu time      6.1127: real time      6.1537

 eigenvalue-minimisations  :     0
 total energy-change (2. order) :-0.2559002E-03  (-0.1935464E-03)
 number of electron      52.0000003 magnetization 
 augmentation part        1.8087161 magnetization 

 DIPCOR: dipole corrections for dipol
 direction  1 min pos     1, direction  2 min pos     1, direction  3 min pos     1,
 dipolmoment          -0.343334     -0.739557      0.431140 electrons x Angstroem
 Tr[quadrupol]        34.136020

 energy correction for charged system         0.000000 eV
 dipol+quadrupol energy correction           -0.003207 eV
 added-field ion interaction         -0.110189 eV  (added to PSCEN)


 Free energy of the ion-electron system (eV)
  ---------------------------------------------------
  alpha Z        PSCENC =         1.31748285
  Ewald energy   TEWEN  =      3937.14618009
  -Hartree energ DENC   =     -5471.18394496
  -exchange      EXHF   =       113.48304569
  -V(xc)+E(xc)   XCENC  =       145.27014668
  PAW double counting   =      4063.92159521    -4073.77318026
  entropy T*S    EENTRO =        -0.00000000
  eigenvalues    EBANDS =      -734.26977733
  atomic energy  EATOM  =      1873.55058303
  ---------------------------------------------------
  free energy    TOTEN  =      -144.53786899 eV

  energy without entropy =     -144.53786899  energy(sigma->0) =     -144.53786899
  exchange ACFDT corr.  =        -0.00000000  see jH, gK, PRB 81, 115126


--------------------------------------------------------------------------------------------------------




--------------------------------------- Iteration      1(  25)  ---------------------------------------


    POTLOK:  cpu time      0.8541: real time      0.8581
    SETDIJ:  cpu time      0.0024: real time      0.0024
    TRIAL :  cpu time      5.1539: real time      5.1894
    CORREC:  cpu time      0.0001: real time      0.0001
    CHARGE:  cpu time      0.1110: real time      0.1121
    --------------------------------------------
      LOOP:  cpu time      6.1219: real time      6.1625

 eigenvalue-minimisations  :     0
 total energy-change (2. order) :-0.1763421E-03  (-0.1388839E-03)
 number of electron      52.0000003 magnetization 
 augmentation part        1.8086992 magnetization 

 DIPCOR: dipole corrections for dipol
 direction  1 min pos     1, direction  2 min pos     1, direction  3 min pos     1,
 dipolmoment          -0.343351     -0.739298      0.431053 electrons x Angstroem
 Tr[quadrupol]        34.135313

 energy correction for charged system         0.000000 eV
 dipol+quadrupol energy correction           -0.003205 eV
 added-field ion interaction         -0.110159 eV  (added to PSCEN)


 Free energy of the ion-electron system (eV)
  ---------------------------------------------------
  alpha Z        PSCENC =         1.31751507
  Ewald energy   TEWEN  =      3937.14618009
  -Hartree energ DENC   =     -5471.17902917
  -exchange      EXHF   =       113.48305868
  -V(xc)+E(xc)   XCENC  =       145.27003974
  PAW double counting   =      4063.93777800    -4073.78917346
  entropy T*S    EENTRO =        -0.00000000
  eigenvalues    EBANDS =      -734.27499731
  atomic energy  EATOM  =      1873.55058303
  ---------------------------------------------------
  free energy    TOTEN  =      -144.53804533 eV

  energy without entropy =     -144.53804533  energy(sigma->0) =     -144.53804533
  exchange ACFDT corr.  =        -0.00000000  see jH, gK, PRB 81, 115126


--------------------------------------------------------------------------------------------------------




--------------------------------------- Iteration      1(  26)  ---------------------------------------


    POTLOK:  cpu time      0.8559: real time      0.8598
    SETDIJ:  cpu time      0.0023: real time      0.0023
    TRIAL :  cpu time      5.1551: real time      5.1913
    CORREC:  cpu time      0.0001: real time      0.0001
    CHARGE:  cpu time      0.1104: real time      0.1114
    --------------------------------------------
      LOOP:  cpu time      6.1240: real time      6.1651

 eigenvalue-minimisations  :     0
 total energy-change (2. order) :-0.1268008E-03  (-0.1014491E-03)
 number of electron      52.0000003 magnetization 
 augmentation part        1.8086881 magnetization 

 DIPCOR: dipole corrections for dipol
 direction  1 min pos     1, direction  2 min pos     1, direction  3 min pos     1,
 dipolmoment          -0.343325     -0.739120      0.430975 electrons x Angstroem
 Tr[quadrupol]        34.134574

 energy correction for charged system         0.000000 eV
 dipol+quadrupol energy correction           -0.003204 eV
 added-field ion interaction         -0.110135 eV  (added to PSCEN)


 Free energy of the ion-electron system (eV)
  ---------------------------------------------------
  alpha Z        PSCENC =         1.31753967
  Ewald energy   TEWEN  =      3937.14618009
  -Hartree energ DENC   =     -5471.17852734
  -exchange      EXHF   =       113.48313214
  -V(xc)+E(xc)   XCENC  =       145.27004384
  PAW double counting   =      4063.94591585    -4073.79719389
  entropy T*S    EENTRO =        -0.00000000
  eigenvalues    EBANDS =      -734.27584553
  atomic energy  EATOM  =      1873.55058303
  ---------------------------------------------------
  free energy    TOTEN  =      -144.53817213 eV

  energy without entropy =     -144.53817213  energy(sigma->0) =     -144.53817213
  exchange ACFDT corr.  =        -0.00000000  see jH, gK, PRB 81, 115126


--------------------------------------------------------------------------------------------------------




--------------------------------------- Iteration      1(  27)  ---------------------------------------


    POTLOK:  cpu time      0.8562: real time      0.8603
    SETDIJ:  cpu time      0.0021: real time      0.0021
    TRIAL :  cpu time      5.1642: real time      5.2008
    CORREC:  cpu time      0.0003: real time      0.0003
    CHARGE:  cpu time      0.1105: real time      0.1115
    --------------------------------------------
      LOOP:  cpu time      6.1335: real time      6.1752

 eigenvalue-minimisations  :     0
 total energy-change (2. order) :-0.9363617E-04  (-0.7645073E-04)
 number of electron      52.0000003 magnetization 
 augmentation part        1.8086799 magnetization 

 DIPCOR: dipole corrections for dipol
 direction  1 min pos     1, direction  2 min pos     1, direction  3 min pos     1,
 dipolmoment          -0.343299     -0.738975      0.430948 electrons x Angstroem
 Tr[quadrupol]        34.134025

 energy correction for charged system         0.000000 eV
 dipol+quadrupol energy correction           -0.003203 eV
 added-field ion interaction         -0.110117 eV  (added to PSCEN)


 Free energy of the ion-electron system (eV)
  ---------------------------------------------------
  alpha Z        PSCENC =         1.31755888
  Ewald energy   TEWEN  =      3937.14618009
  -Hartree energ DENC   =     -5471.17900304
  -exchange      EXHF   =       113.48323869
  -V(xc)+E(xc)   XCENC  =       145.27014726
  PAW double counting   =      4063.95126510    -4073.80246532
  entropy T*S    EENTRO =        -0.00000000
  eigenvalues    EBANDS =      -734.27577047
  atomic energy  EATOM  =      1873.55058303
  ---------------------------------------------------
  free energy    TOTEN  =      -144.53826577 eV

  energy without entropy =     -144.53826577  energy(sigma->0) =     -144.53826577
  exchange ACFDT corr.  =        -0.00000000  see jH, gK, PRB 81, 115126


--------------------------------------------------------------------------------------------------------




--------------------------------------- Iteration      1(  28)  ---------------------------------------


    POTLOK:  cpu time      0.8556: real time      0.8596
    SETDIJ:  cpu time      0.0022: real time      0.0023
    TRIAL :  cpu time      5.1600: real time      5.1967
    CORREC:  cpu time      0.0002: real time      0.0002
    CHARGE:  cpu time      0.1105: real time      0.1114
    --------------------------------------------
      LOOP:  cpu time      6.1287: real time      6.1704

 eigenvalue-minimisations  :     0
 total energy-change (2. order) :-0.7134781E-04  (-0.5794482E-04)
 number of electron      52.0000003 magnetization 
 augmentation part        1.8086726 magnetization 

 DIPCOR: dipole corrections for dipol
 direction  1 min pos     1, direction  2 min pos     1, direction  3 min pos     1,
 dipolmoment          -0.343272     -0.738895      0.430897 electrons x Angstroem
 Tr[quadrupol]        34.133813

 energy correction for charged system         0.000000 eV
 dipol+quadrupol energy correction           -0.003202 eV
 added-field ion interaction         -0.110105 eV  (added to PSCEN)


 Free energy of the ion-electron system (eV)
  ---------------------------------------------------
  alpha Z        PSCENC =         1.31757144
  Ewald energy   TEWEN  =      3937.14618009
  -Hartree energ DENC   =     -5471.17811959
  -exchange      EXHF   =       113.48331520
  -V(xc)+E(xc)   XCENC  =       145.27016865
  PAW double counting   =      4063.95241621    -4073.80355906
  entropy T*S    EENTRO =        -0.00000000
  eigenvalues    EBANDS =      -734.27689307
  atomic energy  EATOM  =      1873.55058303
  ---------------------------------------------------
  free energy    TOTEN  =      -144.53833712 eV

  energy without entropy =     -144.53833712  energy(sigma->0) =     -144.53833712
  exchange ACFDT corr.  =        -0.00000000  see jH, gK, PRB 81, 115126


--------------------------------------------------------------------------------------------------------




--------------------------------------- Iteration      1(  29)  ---------------------------------------


    POTLOK:  cpu time      0.8548: real time      0.8585
    SETDIJ:  cpu time      0.0022: real time      0.0022
    TRIAL :  cpu time      5.1467: real time      5.1821
    CORREC:  cpu time      0.0003: real time      0.0003
    CHARGE:  cpu time      0.1103: real time      0.1116
    --------------------------------------------
      LOOP:  cpu time      6.1146: real time      6.1552

 eigenvalue-minimisations  :     0
 total energy-change (2. order) :-0.5302400E-04  (-0.4451893E-04)
 number of electron      52.0000003 magnetization 
 augmentation part        1.8086681 magnetization 

 DIPCOR: dipole corrections for dipol
 direction  1 min pos     1, direction  2 min pos     1, direction  3 min pos     1,
 dipolmoment          -0.343257     -0.738834      0.430902 electrons x Angstroem
 Tr[quadrupol]        34.133679

 energy correction for charged system         0.000000 eV
 dipol+quadrupol energy correction           -0.003202 eV
 added-field ion interaction         -0.110098 eV  (added to PSCEN)


 Free energy of the ion-electron system (eV)
  ---------------------------------------------------
  alpha Z        PSCENC =         1.31757940
  Ewald energy   TEWEN  =      3937.14618009
  -Hartree energ DENC   =     -5471.17716559
  -exchange      EXHF   =       113.48337246
  -V(xc)+E(xc)   XCENC  =       145.27016172
  PAW double counting   =      4063.95333914    -4073.80443495
  entropy T*S    EENTRO =        -0.00000000
  eigenvalues    EBANDS =      -734.27800544
  atomic energy  EATOM  =      1873.55058303
  ---------------------------------------------------
  free energy    TOTEN  =      -144.53839014 eV

  energy without entropy =     -144.53839014  energy(sigma->0) =     -144.53839014
  exchange ACFDT corr.  =        -0.00000000  see jH, gK, PRB 81, 115126


--------------------------------------------------------------------------------------------------------




--------------------------------------- Iteration      1(  30)  ---------------------------------------


    POTLOK:  cpu time      0.8554: real time      0.8587
    SETDIJ:  cpu time      0.0023: real time      0.0023
    TRIAL :  cpu time      5.1519: real time      5.1871
    CORREC:  cpu time      0.0002: real time      0.0002
    CHARGE:  cpu time      0.1104: real time      0.1114
    --------------------------------------------
      LOOP:  cpu time      6.1205: real time      6.1599

 eigenvalue-minimisations  :     0
 total energy-change (2. order) :-0.4096301E-04  (-0.3445848E-04)
 number of electron      52.0000003 magnetization 
 augmentation part        1.8086644 magnetization 

 DIPCOR: dipole corrections for dipol
 direction  1 min pos     1, direction  2 min pos     1, direction  3 min pos     1,
 dipolmoment          -0.343246     -0.738802      0.430863 electrons x Angstroem
 Tr[quadrupol]        34.133598

 energy correction for charged system         0.000000 eV
 dipol+quadrupol energy correction           -0.003202 eV
 added-field ion interaction         -0.110093 eV  (added to PSCEN)


 Free energy of the ion-electron system (eV)
  ---------------------------------------------------
  alpha Z        PSCENC =         1.31758411
  Ewald energy   TEWEN  =      3937.14618009
  -Hartree energ DENC   =     -5471.17688927
  -exchange      EXHF   =       113.48343806
  -V(xc)+E(xc)   XCENC  =       145.27022841
  PAW double counting   =      4063.95480640    -4073.80586920
  entropy T*S    EENTRO =        -0.00000000
  eigenvalues    EBANDS =      -734.27849272
  atomic energy  EATOM  =      1873.55058303
  ---------------------------------------------------
  free energy    TOTEN  =      -144.53843110 eV

  energy without entropy =     -144.53843110  energy(sigma->0) =     -144.53843110
  exchange ACFDT corr.  =        -0.00000000  see jH, gK, PRB 81, 115126


--------------------------------------------------------------------------------------------------------




--------------------------------------- Iteration      1(  31)  ---------------------------------------


    POTLOK:  cpu time      0.8620: real time      0.8656
    SETDIJ:  cpu time      0.0023: real time      0.0023
    TRIAL :  cpu time      5.1333: real time      5.1640
    CORREC:  cpu time      0.0001: real time      0.0001
    CHARGE:  cpu time      0.1104: real time      0.1113
    --------------------------------------------
      LOOP:  cpu time      6.1082: real time      6.1435

 eigenvalue-minimisations  :     0
 total energy-change (2. order) :-0.3126753E-04  (-0.2683221E-04)
 number of electron      52.0000003 magnetization 
 augmentation part        1.8086622 magnetization 

 DIPCOR: dipole corrections for dipol
 direction  1 min pos     1, direction  2 min pos     1, direction  3 min pos     1,
 dipolmoment          -0.343229     -0.738769      0.430881 electrons x Angstroem
 Tr[quadrupol]        34.133422

 energy correction for charged system         0.000000 eV
 dipol+quadrupol energy correction           -0.003201 eV
 added-field ion interaction         -0.110089 eV  (added to PSCEN)


 Free energy of the ion-electron system (eV)
  ---------------------------------------------------
  alpha Z        PSCENC =         1.31758863
  Ewald energy   TEWEN  =      3937.14618009
  -Hartree energ DENC   =     -5471.17660746
  -exchange      EXHF   =       113.48347998
  -V(xc)+E(xc)   XCENC  =       145.27017699
  PAW double counting   =      4063.95697632    -4073.80801532
  entropy T*S    EENTRO =        -0.00000000
  eigenvalues    EBANDS =      -734.27882464
  atomic energy  EATOM  =      1873.55058303
  ---------------------------------------------------
  free energy    TOTEN  =      -144.53846237 eV

  energy without entropy =     -144.53846237  energy(sigma->0) =     -144.53846237
  exchange ACFDT corr.  =        -0.00000000  see jH, gK, PRB 81, 115126


--------------------------------------------------------------------------------------------------------




--------------------------------------- Iteration      1(  32)  ---------------------------------------


    POTLOK:  cpu time      0.8551: real time      0.8584
    SETDIJ:  cpu time      0.0026: real time      0.0026
    TRIAL :  cpu time      5.1657: real time      5.1956
    CORREC:  cpu time      0.0001: real time      0.0001
    CHARGE:  cpu time      0.1105: real time      0.1114
    --------------------------------------------
      LOOP:  cpu time      6.1341: real time      6.1683

 eigenvalue-minimisations  :     0
 total energy-change (2. order) :-0.2339480E-04  (-0.2087583E-04)
 number of electron      52.0000003 magnetization 
 augmentation part        1.8086599 magnetization 

 DIPCOR: dipole corrections for dipol
 direction  1 min pos     1, direction  2 min pos     1, direction  3 min pos     1,
 dipolmoment          -0.343220     -0.738753      0.430857 electrons x Angstroem
 Tr[quadrupol]        34.133292

 energy correction for charged system         0.000000 eV
 dipol+quadrupol energy correction           -0.003201 eV
 added-field ion interaction         -0.110086 eV  (added to PSCEN)


 Free energy of the ion-electron system (eV)
  ---------------------------------------------------
  alpha Z        PSCENC =         1.31759193
  Ewald energy   TEWEN  =      3937.14618009
  -Hartree energ DENC   =     -5471.17732954
  -exchange      EXHF   =       113.48353540
  -V(xc)+E(xc)   XCENC  =       145.27029163
  PAW double counting   =      4063.95984457    -4073.81086782
  entropy T*S    EENTRO =        -0.00000000
  eigenvalues    EBANDS =      -734.27831505
  atomic energy  EATOM  =      1873.55058303
  ---------------------------------------------------
  free energy    TOTEN  =      -144.53848577 eV

  energy without entropy =     -144.53848577  energy(sigma->0) =     -144.53848577
  exchange ACFDT corr.  =        -0.00000000  see jH, gK, PRB 81, 115126


--------------------------------------------------------------------------------------------------------




--------------------------------------- Iteration      1(  33)  ---------------------------------------


    POTLOK:  cpu time      0.8561: real time      0.8591
    SETDIJ:  cpu time      0.0021: real time      0.0024
    TRIAL :  cpu time      5.1616: real time      5.1923
    CORREC:  cpu time      0.0002: real time      0.0002
    CHARGE:  cpu time      0.1104: real time      0.1113
    --------------------------------------------
      LOOP:  cpu time      6.1308: real time      6.1780

 eigenvalue-minimisations  :     0
 total energy-change (2. order) :-0.1926069E-04  (-0.1675984E-04)
 number of electron      52.0000003 magnetization 
 augmentation part        1.8086591 magnetization 

 DIPCOR: dipole corrections for dipol
 direction  1 min pos     1, direction  2 min pos     1, direction  3 min pos     1,
 dipolmoment          -0.343207     -0.738732      0.430876 electrons x Angstroem
 Tr[quadrupol]        34.133246

 energy correction for charged system         0.000000 eV
 dipol+quadrupol energy correction           -0.003201 eV
 added-field ion interaction         -0.110084 eV  (added to PSCEN)


 Free energy of the ion-electron system (eV)
  ---------------------------------------------------
  alpha Z        PSCENC =         1.31759403
  Ewald energy   TEWEN  =      3937.14618009
  -Hartree energ DENC   =     -5471.17658222
  -exchange      EXHF   =       113.48354854
  -V(xc)+E(xc)   XCENC  =       145.27022370
  PAW double counting   =      4063.96146468    -4073.81247519
  entropy T*S    EENTRO =        -0.00000000
  eigenvalues    EBANDS =      -734.27904168
  atomic energy  EATOM  =      1873.55058303
  ---------------------------------------------------
  free energy    TOTEN  =      -144.53850503 eV

  energy without entropy =     -144.53850503  energy(sigma->0) =     -144.53850503
  exchange ACFDT corr.  =        -0.00000000  see jH, gK, PRB 81, 115126


--------------------------------------------------------------------------------------------------------




--------------------------------------- Iteration      1(  34)  ---------------------------------------


    POTLOK:  cpu time      0.8555: real time      0.8591
    SETDIJ:  cpu time      0.0024: real time      0.0024
    TRIAL :  cpu time      5.1722: real time      5.2031
    CORREC:  cpu time      0.0002: real time      0.0002
    CHARGE:  cpu time      0.1104: real time      0.1113
    --------------------------------------------
      LOOP:  cpu time      6.1409: real time      6.1764

 eigenvalue-minimisations  :     0
 total energy-change (2. order) :-0.1439202E-04  (-0.1372406E-04)
 number of electron      52.0000003 magnetization 
 augmentation part        1.8086580 magnetization 

 DIPCOR: dipole corrections for dipol
 direction  1 min pos     1, direction  2 min pos     1, direction  3 min pos     1,
 dipolmoment          -0.343207     -0.738725      0.430851 electrons x Angstroem
 Tr[quadrupol]        34.133186

 energy correction for charged system         0.000000 eV
 dipol+quadrupol energy correction           -0.003201 eV
 added-field ion interaction         -0.110082 eV  (added to PSCEN)


 Free energy of the ion-electron system (eV)
  ---------------------------------------------------
  alpha Z        PSCENC =         1.31759625
  Ewald energy   TEWEN  =      3937.14618009
  -Hartree energ DENC   =     -5471.17755019
  -exchange      EXHF   =       113.48359792
  -V(xc)+E(xc)   XCENC  =       145.27029473
  PAW double counting   =      4063.96405546    -4073.81505973
  entropy T*S    EENTRO =        -0.00000000
  eigenvalues    EBANDS =      -734.27821698
  atomic energy  EATOM  =      1873.55058303
  ---------------------------------------------------
  free energy    TOTEN  =      -144.53851942 eV

  energy without entropy =     -144.53851942  energy(sigma->0) =     -144.53851942
  exchange ACFDT corr.  =        -0.00000000  see jH, gK, PRB 81, 115126


--------------------------------------------------------------------------------------------------------




--------------------------------------- Iteration      1(  35)  ---------------------------------------


    POTLOK:  cpu time      0.8555: real time      0.8588
    SETDIJ:  cpu time      0.0023: real time      0.0023
    TRIAL :  cpu time      5.1564: real time      5.1874
    CORREC:  cpu time      0.0002: real time      0.0002
    CHARGE:  cpu time      0.1111: real time      0.1121
    --------------------------------------------
      LOOP:  cpu time      6.1256: real time      6.1609

 eigenvalue-minimisations  :     0
 total energy-change (2. order) :-0.1258147E-04  (-0.1147698E-04)
 number of electron      52.0000003 magnetization 
 augmentation part        1.8086577 magnetization 

 DIPCOR: dipole corrections for dipol
 direction  1 min pos     1, direction  2 min pos     1, direction  3 min pos     1,
 dipolmoment          -0.343183     -0.738709      0.430874 electrons x Angstroem
 Tr[quadrupol]        34.133107

 energy correction for charged system         0.000000 eV
 dipol+quadrupol energy correction           -0.003201 eV
 added-field ion interaction         -0.110079 eV  (added to PSCEN)


 Free energy of the ion-electron system (eV)
  ---------------------------------------------------
  alpha Z        PSCENC =         1.31759847
  Ewald energy   TEWEN  =      3937.14618009
  -Hartree energ DENC   =     -5471.17720844
  -exchange      EXHF   =       113.48360940
  -V(xc)+E(xc)   XCENC  =       145.27023805
  PAW double counting   =      4063.96533560    -4073.81633490
  entropy T*S    EENTRO =        -0.00000000
  eigenvalues    EBANDS =      -734.27853331
  atomic energy  EATOM  =      1873.55058303
  ---------------------------------------------------
  free energy    TOTEN  =      -144.53853200 eV

  energy without entropy =     -144.53853200  energy(sigma->0) =     -144.53853200
  exchange ACFDT corr.  =        -0.00000000  see jH, gK, PRB 81, 115126


--------------------------------------------------------------------------------------------------------




--------------------------------------- Iteration      1(  36)  ---------------------------------------


    POTLOK:  cpu time      0.8558: real time      0.8592
    SETDIJ:  cpu time      0.0023: real time      0.0023
    TRIAL :  cpu time      5.1735: real time      5.2045
    CORREC:  cpu time      0.0001: real time      0.0001
    CHARGE:  cpu time      0.1106: real time      0.1114
    --------------------------------------------
      LOOP:  cpu time      6.1426: real time      6.1778

 eigenvalue-minimisations  :     0
 total energy-change (2. order) :-0.1023666E-04  (-0.9662356E-05)
 number of electron      52.0000003 magnetization 
 augmentation part        1.8086568 magnetization 

 DIPCOR: dipole corrections for dipol
 direction  1 min pos     1, direction  2 min pos     1, direction  3 min pos     1,
 dipolmoment          -0.343182     -0.738707      0.430850 electrons x Angstroem
 Tr[quadrupol]        34.133003

 energy correction for charged system         0.000000 eV
 dipol+quadrupol energy correction           -0.003201 eV
 added-field ion interaction         -0.110078 eV  (added to PSCEN)


 Free energy of the ion-electron system (eV)
  ---------------------------------------------------
  alpha Z        PSCENC =         1.31759982
  Ewald energy   TEWEN  =      3937.14618009
  -Hartree energ DENC   =     -5471.17841694
  -exchange      EXHF   =       113.48365194
  -V(xc)+E(xc)   XCENC  =       145.27037312
  PAW double counting   =      4063.96730894    -4073.81830529
  entropy T*S    EENTRO =        -0.00000000
  eigenvalues    EBANDS =      -734.27751694
  atomic energy  EATOM  =      1873.55058303
  ---------------------------------------------------
  free energy    TOTEN  =      -144.53854224 eV

  energy without entropy =     -144.53854224  energy(sigma->0) =     -144.53854224
  exchange ACFDT corr.  =        -0.00000000  see jH, gK, PRB 81, 115126


--------------------------------------------------------------------------------------------------------




--------------------------------------- Iteration      1(  37)  ---------------------------------------


    POTLOK:  cpu time      0.8563: real time      0.8597
    SETDIJ:  cpu time      0.0024: real time      0.0024
    TRIAL :  cpu time      5.1515: real time      5.1823
    CORREC:  cpu time      0.0002: real time      0.0003
    CHARGE:  cpu time      0.1105: real time      0.1113
    --------------------------------------------
      LOOP:  cpu time      6.1211: real time      6.1561

 eigenvalue-minimisations  :     0
 total energy-change (2. order) :-0.7844996E-05  (-0.8441872E-05)
 number of electron      52.0000003 magnetization 
 augmentation part        1.8086575 magnetization 

 DIPCOR: dipole corrections for dipol
 direction  1 min pos     1, direction  2 min pos     1, direction  3 min pos     1,
 dipolmoment          -0.343172     -0.738689      0.430878 electrons x Angstroem
 Tr[quadrupol]        34.133053

 energy correction for charged system         0.000000 eV
 dipol+quadrupol energy correction           -0.003201 eV
 added-field ion interaction         -0.110076 eV  (added to PSCEN)


 Free energy of the ion-electron system (eV)
  ---------------------------------------------------
  alpha Z        PSCENC =         1.31760190
  Ewald energy   TEWEN  =      3937.14618009
  -Hartree energ DENC   =     -5471.17721760
  -exchange      EXHF   =       113.48363888
  -V(xc)+E(xc)   XCENC  =       145.27020097
  PAW double counting   =      4063.96749276    -4073.81848563
  entropy T*S    EENTRO =        -0.00000000
  eigenvalues    EBANDS =      -734.27854447
  atomic energy  EATOM  =      1873.55058303
  ---------------------------------------------------
  free energy    TOTEN  =      -144.53855008 eV

  energy without entropy =     -144.53855008  energy(sigma->0) =     -144.53855008
  exchange ACFDT corr.  =        -0.00000000  see jH, gK, PRB 81, 115126


--------------------------------------------------------------------------------------------------------




--------------------------------------- Iteration      1(  38)  ---------------------------------------


    POTLOK:  cpu time      0.8562: real time      0.8599
    SETDIJ:  cpu time      0.0022: real time      0.0022
    TRIAL :  cpu time      5.1756: real time      5.2067
    CORREC:  cpu time      0.0002: real time      0.0002
    CHARGE:  cpu time      0.1104: real time      0.1113
    --------------------------------------------
      LOOP:  cpu time      6.1448: real time      6.1805

 eigenvalue-minimisations  :     0
 total energy-change (2. order) :-0.7394009E-05  (-0.7379947E-05)
 number of electron      52.0000003 magnetization 
 augmentation part        1.8086562 magnetization 

 DIPCOR: dipole corrections for dipol
 direction  1 min pos     1, direction  2 min pos     1, direction  3 min pos     1,
 dipolmoment          -0.343167     -0.738697      0.430850 electrons x Angstroem
 Tr[quadrupol]        34.132903

 energy correction for charged system         0.000000 eV
 dipol+quadrupol energy correction           -0.003201 eV
 added-field ion interaction         -0.110077 eV  (added to PSCEN)


 Free energy of the ion-electron system (eV)
  ---------------------------------------------------
  alpha Z        PSCENC =         1.31760112
  Ewald energy   TEWEN  =      3937.14618009
  -Hartree energ DENC   =     -5471.17915955
  -exchange      EXHF   =       113.48369235
  -V(xc)+E(xc)   XCENC  =       145.27041828
  PAW double counting   =      4063.97032218    -4073.82131582
  entropy T*S    EENTRO =        -0.00000000
  eigenvalues    EBANDS =      -734.27687916
  atomic energy  EATOM  =      1873.55058303
  ---------------------------------------------------
  free energy    TOTEN  =      -144.53855748 eV

  energy without entropy =     -144.53855748  energy(sigma->0) =     -144.53855748
  exchange ACFDT corr.  =        -0.00000000  see jH, gK, PRB 81, 115126


--------------------------------------------------------------------------------------------------------




--------------------------------------- Iteration      1(  39)  ---------------------------------------


    POTLOK:  cpu time      0.8548: real time      0.8584
    SETDIJ:  cpu time      0.0030: real time      0.0030
    TRIAL :  cpu time      5.1560: real time      5.1876
    CORREC:  cpu time      0.0001: real time      0.0001
    CHARGE:  cpu time      0.1106: real time      0.1115
    --------------------------------------------
      LOOP:  cpu time      6.1292: real time      6.1657

 eigenvalue-minimisations  :     0
 total energy-change (2. order) :-0.5374234E-05  (-0.6645683E-05)
 number of electron      52.0000003 magnetization 
 augmentation part        1.8086580 magnetization 

 DIPCOR: dipole corrections for dipol
 direction  1 min pos     1, direction  2 min pos     1, direction  3 min pos     1,
 dipolmoment          -0.343165     -0.738680      0.430880 electrons x Angstroem
 Tr[quadrupol]        34.133081

 energy correction for charged system         0.000000 eV
 dipol+quadrupol energy correction           -0.003201 eV
 added-field ion interaction         -0.110076 eV  (added to PSCEN)


 Free energy of the ion-electron system (eV)
  ---------------------------------------------------
  alpha Z        PSCENC =         1.31760251
  Ewald energy   TEWEN  =      3937.14618009
  -Hartree energ DENC   =     -5471.17695439
  -exchange      EXHF   =       113.48365436
  -V(xc)+E(xc)   XCENC  =       145.27019337
  PAW double counting   =      4063.96950678    -4073.82049547
  entropy T*S    EENTRO =        -0.00000000
  eigenvalues    EBANDS =      -734.27883313
  atomic energy  EATOM  =      1873.55058303
  ---------------------------------------------------
  free energy    TOTEN  =      -144.53856285 eV

  energy without entropy =     -144.53856285  energy(sigma->0) =     -144.53856285
  exchange ACFDT corr.  =        -0.00000000  see jH, gK, PRB 81, 115126


--------------------------------------------------------------------------------------------------------




--------------------------------------- Iteration      1(  40)  ---------------------------------------


    POTLOK:  cpu time      0.8553: real time      0.8589
    SETDIJ:  cpu time      0.0026: real time      0.0026
    TRIAL :  cpu time      5.1632: real time      5.1941
    CORREC:  cpu time      0.0002: real time      0.0002
    CHARGE:  cpu time      0.1105: real time      0.1113
    --------------------------------------------
      LOOP:  cpu time      6.1321: real time      6.1674

 eigenvalue-minimisations  :     0
 total energy-change (2. order) :-0.6252734E-05  (-0.5609349E-05)
 number of electron      52.0000003 magnetization 
 augmentation part        1.8086563 magnetization 

 DIPCOR: dipole corrections for dipol
 direction  1 min pos     1, direction  2 min pos     1, direction  3 min pos     1,
 dipolmoment          -0.343154     -0.738682      0.430867 electrons x Angstroem
 Tr[quadrupol]        34.132773

 energy correction for charged system         0.000000 eV
 dipol+quadrupol energy correction           -0.003201 eV
 added-field ion interaction         -0.110074 eV  (added to PSCEN)


 Free energy of the ion-electron system (eV)
  ---------------------------------------------------
  alpha Z        PSCENC =         1.31760374
  Ewald energy   TEWEN  =      3937.14618009
  -Hartree energ DENC   =     -5471.17997423
  -exchange      EXHF   =       113.48373241
  -V(xc)+E(xc)   XCENC  =       145.27047333
  PAW double counting   =      4063.97373000    -4073.82472327
  entropy T*S    EENTRO =        -0.00000000
  eigenvalues    EBANDS =      -734.27617419
  atomic energy  EATOM  =      1873.55058303
  ---------------------------------------------------
  free energy    TOTEN  =      -144.53856910 eV

  energy without entropy =     -144.53856910  energy(sigma->0) =     -144.53856910
  exchange ACFDT corr.  =        -0.00000000  see jH, gK, PRB 81, 115126


--------------------------------------------------------------------------------------------------------




--------------------------------------- Iteration      1(  41)  ---------------------------------------


    POTLOK:  cpu time      0.8569: real time      0.8602
    SETDIJ:  cpu time      0.0022: real time      0.0022
    TRIAL :  cpu time      5.1332: real time      5.1764
    CORREC:  cpu time      0.0002: real time      0.0002
    CHARGE:  cpu time      0.1103: real time      0.1113
    --------------------------------------------
      LOOP:  cpu time      6.1031: real time      6.1506

 eigenvalue-minimisations  :     0
 total energy-change (2. order) :-0.2200908E-05  (-0.4866136E-05)
 number of electron      52.0000003 magnetization 
 augmentation part        1.8086577 magnetization 

 DIPCOR: dipole corrections for dipol
 direction  1 min pos     1, direction  2 min pos     1, direction  3 min pos     1,
 dipolmoment          -0.343155     -0.738677      0.430869 electrons x Angstroem
 Tr[quadrupol]        34.133042

 energy correction for charged system         0.000000 eV
 dipol+quadrupol energy correction           -0.003201 eV
 added-field ion interaction         -0.110074 eV  (added to PSCEN)


 Free energy of the ion-electron system (eV)
  ---------------------------------------------------
  alpha Z        PSCENC =         1.31760393
  Ewald energy   TEWEN  =      3937.14618009
  -Hartree energ DENC   =     -5471.17731653
  -exchange      EXHF   =       113.48367684
  -V(xc)+E(xc)   XCENC  =       145.27019847
  PAW double counting   =      4063.97229219    -4073.82327949
  entropy T*S    EENTRO =        -0.00000000
  eigenvalues    EBANDS =      -734.27850983
  atomic energy  EATOM  =      1873.55058303
  ---------------------------------------------------
  free energy    TOTEN  =      -144.53857130 eV

  energy without entropy =     -144.53857130  energy(sigma->0) =     -144.53857130
  exchange ACFDT corr.  =        -0.00000000  see jH, gK, PRB 81, 115126


--------------------------------------------------------------------------------------------------------




--------------------------------------- Iteration      1(  42)  ---------------------------------------


    POTLOK:  cpu time      0.8558: real time      0.8592
    SETDIJ:  cpu time      0.0023: real time      0.0023
    TRIAL :  cpu time      5.1425: real time      5.1735
    CORREC:  cpu time      0.0001: real time      0.0002
    CHARGE:  cpu time      0.1106: real time      0.1113
    --------------------------------------------
      LOOP:  cpu time      6.1116: real time      6.1468

 eigenvalue-minimisations  :     0
 total energy-change (2. order) :-0.5219365E-05  (-0.4199551E-05)
 number of electron      52.0000003 magnetization 
 augmentation part        1.8086573 magnetization 

 DIPCOR: dipole corrections for dipol
 direction  1 min pos     1, direction  2 min pos     1, direction  3 min pos     1,
 dipolmoment          -0.343143     -0.738675      0.430860 electrons x Angstroem
 Tr[quadrupol]        34.132803

 energy correction for charged system         0.000000 eV
 dipol+quadrupol energy correction           -0.003201 eV
 added-field ion interaction         -0.110073 eV  (added to PSCEN)


 Free energy of the ion-electron system (eV)
  ---------------------------------------------------
  alpha Z        PSCENC =         1.31760554
  Ewald energy   TEWEN  =      3937.14618009
  -Hartree energ DENC   =     -5471.17972346
  -exchange      EXHF   =       113.48374037
  -V(xc)+E(xc)   XCENC  =       145.27042303
  PAW double counting   =      4063.97573433    -4073.82672483
  entropy T*S    EENTRO =        -0.00000000
  eigenvalues    EBANDS =      -734.27639462
  atomic energy  EATOM  =      1873.55058303
  ---------------------------------------------------
  free energy    TOTEN  =      -144.53857652 eV

  energy without entropy =     -144.53857652  energy(sigma->0) =     -144.53857652
  exchange ACFDT corr.  =        -0.00000000  see jH, gK, PRB 81, 115126


--------------------------------------------------------------------------------------------------------




--------------------------------------- Iteration      1(  43)  ---------------------------------------


    POTLOK:  cpu time      0.8555: real time      0.8588
    SETDIJ:  cpu time      0.0024: real time      0.0024
    TRIAL :  cpu time      5.1469: real time      5.1779
    CORREC:  cpu time      0.0002: real time      0.0003
    CHARGE:  cpu time      0.1106: real time      0.1113
    --------------------------------------------
      LOOP:  cpu time      6.1161: real time      6.1529

 eigenvalue-minimisations  :     0
 total energy-change (2. order) :-0.2616273E-05  (-0.3842969E-05)
 number of electron      52.0000003 magnetization 
 augmentation part        1.8086575 magnetization 

 DIPCOR: dipole corrections for dipol
 direction  1 min pos     1, direction  2 min pos     1, direction  3 min pos     1,
 dipolmoment          -0.343148     -0.738675      0.430891 electrons x Angstroem
 Tr[quadrupol]        34.132835

 energy correction for charged system         0.000000 eV
 dipol+quadrupol energy correction           -0.003201 eV
 added-field ion interaction         -0.110074 eV  (added to PSCEN)


 Free energy of the ion-electron system (eV)
  ---------------------------------------------------
  alpha Z        PSCENC =         1.31760392
  Ewald energy   TEWEN  =      3937.14618009
  -Hartree energ DENC   =     -5471.17873412
  -exchange      EXHF   =       113.48372104
  -V(xc)+E(xc)   XCENC  =       145.27030171
  PAW double counting   =      4063.97593083    -4073.82691955
  entropy T*S    EENTRO =        -0.00000000
  eigenvalues    EBANDS =      -734.27724610
  atomic energy  EATOM  =      1873.55058303
  ---------------------------------------------------
  free energy    TOTEN  =      -144.53857914 eV

  energy without entropy =     -144.53857914  energy(sigma->0) =     -144.53857914
  exchange ACFDT corr.  =        -0.00000000  see jH, gK, PRB 81, 115126


--------------------------------------------------------------------------------------------------------




--------------------------------------- Iteration      1(  44)  ---------------------------------------


    POTLOK:  cpu time      0.8564: real time      0.8600
    SETDIJ:  cpu time      0.0025: real time      0.0025
    TRIAL :  cpu time      5.1408: real time      5.1713
    CORREC:  cpu time      0.0002: real time      0.0002
    CHARGE:  cpu time      0.1101: real time      0.1116
    --------------------------------------------
      LOOP:  cpu time      6.1103: real time      6.1459

 eigenvalue-minimisations  :     0
 total energy-change (2. order) :-0.2582114E-05  (-0.3458469E-05)
 number of electron      52.0000003 magnetization 
 augmentation part        1.8086573 magnetization 

 DIPCOR: dipole corrections for dipol
 direction  1 min pos     1, direction  2 min pos     1, direction  3 min pos     1,
 dipolmoment          -0.343139     -0.738664      0.430860 electrons x Angstroem
 Tr[quadrupol]        34.132842

 energy correction for charged system         0.000000 eV
 dipol+quadrupol energy correction           -0.003201 eV
 added-field ion interaction         -0.110072 eV  (added to PSCEN)


 Free energy of the ion-electron system (eV)
  ---------------------------------------------------
  alpha Z        PSCENC =         1.31760575
  Ewald energy   TEWEN  =      3937.14618009
  -Hartree energ DENC   =     -5471.17921445
  -exchange      EXHF   =       113.48374076
  -V(xc)+E(xc)   XCENC  =       145.27038289
  PAW double counting   =      4063.97742351    -4073.82841211
  entropy T*S    EENTRO =        -0.00000000
  eigenvalues    EBANDS =      -734.27687118
  atomic energy  EATOM  =      1873.55058303
  ---------------------------------------------------
  free energy    TOTEN  =      -144.53858172 eV

  energy without entropy =     -144.53858172  energy(sigma->0) =     -144.53858172
  exchange ACFDT corr.  =        -0.00000000  see jH, gK, PRB 81, 115126


--------------------------------------------------------------------------------------------------------




--------------------------------------- Iteration      1(  45)  ---------------------------------------


    POTLOK:  cpu time      0.8545: real time      0.8574
    SETDIJ:  cpu time      0.0039: real time      0.0039
    TRIAL :  cpu time      5.1534: real time      5.1843
    CORREC:  cpu time      0.0001: real time      0.0001
    CHARGE:  cpu time      0.1104: real time      0.1113
    --------------------------------------------
      LOOP:  cpu time      6.1226: real time      6.1574

 eigenvalue-minimisations  :     0
 total energy-change (2. order) :-0.2576188E-05  (-0.3195395E-05)
 number of electron      52.0000003 magnetization 
 augmentation part        1.8086581 magnetization 

 DIPCOR: dipole corrections for dipol
 direction  1 min pos     1, direction  2 min pos     1, direction  3 min pos     1,
 dipolmoment          -0.343140     -0.738681      0.430872 electrons x Angstroem
 Tr[quadrupol]        34.132820

 energy correction for charged system         0.000000 eV
 dipol+quadrupol energy correction           -0.003201 eV
 added-field ion interaction         -0.110074 eV  (added to PSCEN)


 Free energy of the ion-electron system (eV)
  ---------------------------------------------------
  alpha Z        PSCENC =         1.31760383
  Ewald energy   TEWEN  =      3937.14618009
  -Hartree energ DENC   =     -5471.17899538
  -exchange      EXHF   =       113.48373370
  -V(xc)+E(xc)   XCENC  =       145.27032045
  PAW double counting   =      4063.97760808    -4073.82859531
  entropy T*S    EENTRO =        -0.00000000
  eigenvalues    EBANDS =      -734.27702280
  atomic energy  EATOM  =      1873.55058303
  ---------------------------------------------------
  free energy    TOTEN  =      -144.53858430 eV

  energy without entropy =     -144.53858430  energy(sigma->0) =     -144.53858430
  exchange ACFDT corr.  =        -0.00000000  see jH, gK, PRB 81, 115126


--------------------------------------------------------------------------------------------------------




--------------------------------------- Iteration      1(  46)  ---------------------------------------


    POTLOK:  cpu time      0.8542: real time      0.8586
    SETDIJ:  cpu time      0.0024: real time      0.0024
    TRIAL :  cpu time      5.1537: real time      5.1852
    CORREC:  cpu time      0.0001: real time      0.0001
    CHARGE:  cpu time      0.1106: real time      0.1115
    --------------------------------------------
      LOOP:  cpu time      6.1213: real time      6.1581

 eigenvalue-minimisations  :     0
 total energy-change (2. order) :-0.2818278E-05  (-0.2794060E-05)
 number of electron      52.0000003 magnetization 
 augmentation part        1.8086578 magnetization 

 DIPCOR: dipole corrections for dipol
 direction  1 min pos     1, direction  2 min pos     1, direction  3 min pos     1,
 dipolmoment          -0.343133     -0.738651      0.430874 electrons x Angstroem
 Tr[quadrupol]        34.132785

 energy correction for charged system         0.000000 eV
 dipol+quadrupol energy correction           -0.003201 eV
 added-field ion interaction         -0.110071 eV  (added to PSCEN)


 Free energy of the ion-electron system (eV)
  ---------------------------------------------------
  alpha Z        PSCENC =         1.31760764
  Ewald energy   TEWEN  =      3937.14618009
  -Hartree energ DENC   =     -5471.17963476
  -exchange      EXHF   =       113.48376164
  -V(xc)+E(xc)   XCENC  =       145.27037544
  PAW double counting   =      4063.97959720    -4073.83058628
  entropy T*S    EENTRO =        -0.00000000
  eigenvalues    EBANDS =      -734.27647113
  atomic energy  EATOM  =      1873.55058303
  ---------------------------------------------------
  free energy    TOTEN  =      -144.53858712 eV

  energy without entropy =     -144.53858712  energy(sigma->0) =     -144.53858712
  exchange ACFDT corr.  =        -0.00000000  see jH, gK, PRB 81, 115126


--------------------------------------------------------------------------------------------------------




--------------------------------------- Iteration      1(  47)  ---------------------------------------


    POTLOK:  cpu time      0.8542: real time      0.8580
    SETDIJ:  cpu time      0.0025: real time      0.0025
    TRIAL :  cpu time      5.1524: real time      5.1841
    CORREC:  cpu time      0.0002: real time      0.0002
    CHARGE:  cpu time      0.1106: real time      0.1115
    --------------------------------------------
      LOOP:  cpu time      6.1201: real time      6.1564

 eigenvalue-minimisations  :     0
 total energy-change (2. order) :-0.1928222E-05  (-0.2515322E-05)
 number of electron      52.0000003 magnetization 
 augmentation part        1.8086581 magnetization 

 DIPCOR: dipole corrections for dipol
 direction  1 min pos     1, direction  2 min pos     1, direction  3 min pos     1,
 dipolmoment          -0.343134     -0.738678      0.430873 electrons x Angstroem
 Tr[quadrupol]        34.132792

 energy correction for charged system         0.000000 eV
 dipol+quadrupol energy correction           -0.003201 eV
 added-field ion interaction         -0.110073 eV  (added to PSCEN)


 Free energy of the ion-electron system (eV)
  ---------------------------------------------------
  alpha Z        PSCENC =         1.31760510
  Ewald energy   TEWEN  =      3937.14618009
  -Hartree energ DENC   =     -5471.17932723
  -exchange      EXHF   =       113.48375175
  -V(xc)+E(xc)   XCENC  =       145.27034541
  PAW double counting   =      4063.97959455    -4073.83058205
  entropy T*S    EENTRO =        -0.00000000
  eigenvalues    EBANDS =      -734.27673968
  atomic energy  EATOM  =      1873.55058303
  ---------------------------------------------------
  free energy    TOTEN  =      -144.53858904 eV

  energy without entropy =     -144.53858904  energy(sigma->0) =     -144.53858904
  exchange ACFDT corr.  =        -0.00000000  see jH, gK, PRB 81, 115126


--------------------------------------------------------------------------------------------------------




--------------------------------------- Iteration      1(  48)  ---------------------------------------


    POTLOK:  cpu time      0.8558: real time      0.8591
    SETDIJ:  cpu time      0.0023: real time      0.0023
    TRIAL :  cpu time      5.1491: real time      5.1911
    CORREC:  cpu time      0.0001: real time      0.0002
    CHARGE:  cpu time      0.1177: real time      0.1184
    --------------------------------------------
      LOOP:  cpu time      6.1251: real time      6.1713

 eigenvalue-minimisations  :     0
 total energy-change (2. order) :-0.1828820E-05  (-0.2283138E-05)
 number of electron      52.0000003 magnetization 
 augmentation part        1.8086580 magnetization 

 DIPCOR: dipole corrections for dipol
 direction  1 min pos     1, direction  2 min pos     1, direction  3 min pos     1,
 dipolmoment          -0.343126     -0.738661      0.430873 electrons x Angstroem
 Tr[quadrupol]        34.132749

 energy correction for charged system         0.000000 eV
 dipol+quadrupol energy correction           -0.003201 eV
 added-field ion interaction         -0.110071 eV  (added to PSCEN)


 Free energy of the ion-electron system (eV)
  ---------------------------------------------------
  alpha Z        PSCENC =         1.31760709
  Ewald energy   TEWEN  =      3937.14618009
  -Hartree energ DENC   =     -5471.17993521
  -exchange      EXHF   =       113.48377125
  -V(xc)+E(xc)   XCENC  =       145.27039755
  PAW double counting   =      4063.98093623    -4073.83192438
  entropy T*S    EENTRO =        -0.00000000
  eigenvalues    EBANDS =      -734.27620652
  atomic energy  EATOM  =      1873.55058303
  ---------------------------------------------------
  free energy    TOTEN  =      -144.53859087 eV

  energy without entropy =     -144.53859087  energy(sigma->0) =     -144.53859087
  exchange ACFDT corr.  =        -0.00000000  see jH, gK, PRB 81, 115126


--------------------------------------------------------------------------------------------------------




--------------------------------------- Iteration      1(  49)  ---------------------------------------


    POTLOK:  cpu time      0.8619: real time      0.8665
    SETDIJ:  cpu time      0.0046: real time      0.0046
    TRIAL :  cpu time      5.1372: real time      5.1952
    CORREC:  cpu time      0.0001: real time      0.0001
    CHARGE:  cpu time      0.1103: real time      0.1114
    --------------------------------------------
      LOOP:  cpu time      6.1155: real time      6.1805

 eigenvalue-minimisations  :     0
 total energy-change (2. order) :-0.9339128E-06  (-0.2348603E-05)
 number of electron      52.0000003 magnetization 
 augmentation part        1.8086583 magnetization 

 DIPCOR: dipole corrections for dipol
 direction  1 min pos     1, direction  2 min pos     1, direction  3 min pos     1,
 dipolmoment          -0.343131     -0.738659      0.430877 electrons x Angstroem
 Tr[quadrupol]        34.132818

 energy correction for charged system         0.000000 eV
 dipol+quadrupol energy correction           -0.003201 eV
 added-field ion interaction         -0.110071 eV  (added to PSCEN)


 Free energy of the ion-electron system (eV)
  ---------------------------------------------------
  alpha Z        PSCENC =         1.31760752
  Ewald energy   TEWEN  =      3937.14618009
  -Hartree energ DENC   =     -5471.17901652
  -exchange      EXHF   =       113.48375436
  -V(xc)+E(xc)   XCENC  =       145.27036365
  PAW double counting   =      4063.98078448    -4073.83177199
  entropy T*S    EENTRO =        -0.00000000
  eigenvalues    EBANDS =      -734.27707642
  atomic energy  EATOM  =      1873.55058303
  ---------------------------------------------------
  free energy    TOTEN  =      -144.53859181 eV

  energy without entropy =     -144.53859181  energy(sigma->0) =     -144.53859181
  exchange ACFDT corr.  =        -0.00000000  see jH, gK, PRB 81, 115126


--------------------------------------------------------------------------------------------------------




--------------------------------------- Iteration      1(  50)  ---------------------------------------


    POTLOK:  cpu time      0.8547: real time      0.8589
    SETDIJ:  cpu time      0.0023: real time      0.0023
    TRIAL :  cpu time      5.1412: real time      5.1779
    CORREC:  cpu time      0.0002: real time      0.0002
    CHARGE:  cpu time      0.1106: real time      0.1125
    --------------------------------------------
      LOOP:  cpu time      6.1094: real time      6.1521

 eigenvalue-minimisations  :     0
 total energy-change (2. order) :-0.1882660E-05  (-0.2185858E-05)
 number of electron      52.0000003 magnetization 
 augmentation part        1.8086587 magnetization 

 DIPCOR: dipole corrections for dipol
 direction  1 min pos     1, direction  2 min pos     1, direction  3 min pos     1,
 dipolmoment          -0.343125     -0.738672      0.430868 electrons x Angstroem
 Tr[quadrupol]        34.132798

 energy correction for charged system         0.000000 eV
 dipol+quadrupol energy correction           -0.003201 eV
 added-field ion interaction         -0.110072 eV  (added to PSCEN)


 Free energy of the ion-electron system (eV)
  ---------------------------------------------------
  alpha Z        PSCENC =         1.31760654
  Ewald energy   TEWEN  =      3937.14618009
  -Hartree energ DENC   =     -5471.17948561
  -exchange      EXHF   =       113.48376671
  -V(xc)+E(xc)   XCENC  =       145.27033054
  PAW double counting   =      4063.98139823    -4073.83238640
  entropy T*S    EENTRO =        -0.00000000
  eigenvalues    EBANDS =      -734.27658682
  atomic energy  EATOM  =      1873.55058303
  ---------------------------------------------------
  free energy    TOTEN  =      -144.53859369 eV

  energy without entropy =     -144.53859369  energy(sigma->0) =     -144.53859369
  exchange ACFDT corr.  =        -0.00000000  see jH, gK, PRB 81, 115126


--------------------------------------------------------------------------------------------------------




--------------------------------------- Iteration      1(  51)  ---------------------------------------


    POTLOK:  cpu time      0.8554: real time      0.8601
    SETDIJ:  cpu time      0.0022: real time      0.0022
    TRIAL :  cpu time      5.1510: real time      5.1874
    CORREC:  cpu time      0.0002: real time      0.0002
    CHARGE:  cpu time      0.1103: real time      0.1113
    --------------------------------------------
      LOOP:  cpu time      6.1197: real time      6.1699

 eigenvalue-minimisations  :     0
 total energy-change (2. order) :-0.1056984E-05  (-0.1948868E-05)
 number of electron      52.0000003 magnetization 
 augmentation part        1.8086582 magnetization 

 DIPCOR: dipole corrections for dipol
 direction  1 min pos     1, direction  2 min pos     1, direction  3 min pos     1,
 dipolmoment          -0.343119     -0.738652      0.430884 electrons x Angstroem
 Tr[quadrupol]        34.132707

 energy correction for charged system         0.000000 eV
 dipol+quadrupol energy correction           -0.003200 eV
 added-field ion interaction         -0.110070 eV  (added to PSCEN)


 Free energy of the ion-electron system (eV)
  ---------------------------------------------------
  alpha Z        PSCENC =         1.31760848
  Ewald energy   TEWEN  =      3937.14618009
  -Hartree energ DENC   =     -5471.18014910
  -exchange      EXHF   =       113.48378788
  -V(xc)+E(xc)   XCENC  =       145.27043256
  PAW double counting   =      4063.98306012    -4073.83404926
  entropy T*S    EENTRO =        -0.00000000
  eigenvalues    EBANDS =      -734.27604854
  atomic energy  EATOM  =      1873.55058303
  ---------------------------------------------------
  free energy    TOTEN  =      -144.53859475 eV

  energy without entropy =     -144.53859475  energy(sigma->0) =     -144.53859475
  exchange ACFDT corr.  =        -0.00000000  see jH, gK, PRB 81, 115126


--------------------------------------------------------------------------------------------------------




--------------------------------------- Iteration      1(  52)  ---------------------------------------


    POTLOK:  cpu time      0.8546: real time      0.8586
    SETDIJ:  cpu time      0.0023: real time      0.0023
    TRIAL :  cpu time      5.1385: real time      5.1748
    CORREC:  cpu time      0.0001: real time      0.0001
    CHARGE:  cpu time      0.1107: real time      0.1118
    --------------------------------------------
      LOOP:  cpu time      6.1063: real time      6.1477

 eigenvalue-minimisations  :     0
 total energy-change (2. order) :-0.5076090E-06  (-0.1757769E-05)
 number of electron      52.0000003 magnetization 
 augmentation part        1.8086590 magnetization 

 DIPCOR: dipole corrections for dipol
 direction  1 min pos     1, direction  2 min pos     1, direction  3 min pos     1,
 dipolmoment          -0.343122     -0.738669      0.430870 electrons x Angstroem
 Tr[quadrupol]        34.132774

 energy correction for charged system         0.000000 eV
 dipol+quadrupol energy correction           -0.003201 eV
 added-field ion interaction         -0.110072 eV  (added to PSCEN)


 Free energy of the ion-electron system (eV)
  ---------------------------------------------------
  alpha Z        PSCENC =         1.31760595
  Ewald energy   TEWEN  =      3937.14618009
  -Hartree energ DENC   =     -5471.17937984
  -exchange      EXHF   =       113.48376729
  -V(xc)+E(xc)   XCENC  =       145.27031153
  PAW double counting   =      4063.98212789    -4073.83311492
  entropy T*S    EENTRO =        -0.00000000
  eigenvalues    EBANDS =      -734.27667627
  atomic energy  EATOM  =      1873.55058303
  ---------------------------------------------------
  free energy    TOTEN  =      -144.53859525 eV

  energy without entropy =     -144.53859525  energy(sigma->0) =     -144.53859525
  exchange ACFDT corr.  =        -0.00000000  see jH, gK, PRB 81, 115126


--------------------------------------------------------------------------------------------------------




--------------------------------------- Iteration      1(  53)  ---------------------------------------


    POTLOK:  cpu time      0.8557: real time      0.8596
    SETDIJ:  cpu time      0.0022: real time      0.0022
    TRIAL :  cpu time      5.1462: real time      5.1827
    CORREC:  cpu time      0.0001: real time      0.0001
    CHARGE:  cpu time      0.1104: real time      0.1115
    --------------------------------------------
      LOOP:  cpu time      6.1152: real time      6.1583

 eigenvalue-minimisations  :     0
 total energy-change (2. order) :-0.1409223E-05  (-0.1569985E-05)
 number of electron      52.0000003 magnetization 
 augmentation part        1.8086586 magnetization 

 DIPCOR: dipole corrections for dipol
 direction  1 min pos     1, direction  2 min pos     1, direction  3 min pos     1,
 dipolmoment          -0.343115     -0.738650      0.430879 electrons x Angstroem
 Tr[quadrupol]        34.132691

 energy correction for charged system         0.000000 eV
 dipol+quadrupol energy correction           -0.003200 eV
 added-field ion interaction         -0.110069 eV  (added to PSCEN)


 Free energy of the ion-electron system (eV)
  ---------------------------------------------------
  alpha Z        PSCENC =         1.31760947
  Ewald energy   TEWEN  =      3937.14618009
  -Hartree energ DENC   =     -5471.18035432
  -exchange      EXHF   =       113.48379674
  -V(xc)+E(xc)   XCENC  =       145.27042444
  PAW double counting   =      4063.98408563    -4073.83507536
  entropy T*S    EENTRO =        -0.00000000
  eigenvalues    EBANDS =      -734.27584639
  atomic energy  EATOM  =      1873.55058303
  ---------------------------------------------------
  free energy    TOTEN  =      -144.53859666 eV

  energy without entropy =     -144.53859666  energy(sigma->0) =     -144.53859666
  exchange ACFDT corr.  =        -0.00000000  see jH, gK, PRB 81, 115126


--------------------------------------------------------------------------------------------------------




--------------------------------------- Iteration      1(  54)  ---------------------------------------


    POTLOK:  cpu time      0.8562: real time      0.8598
    SETDIJ:  cpu time      0.0023: real time      0.0023
    TRIAL :  cpu time      5.1409: real time      5.1721
    CORREC:  cpu time      0.0001: real time      0.0001
    CHARGE:  cpu time      0.1105: real time      0.1115
    --------------------------------------------
      LOOP:  cpu time      6.1102: real time      6.1459

 eigenvalue-minimisations  :     0
 total energy-change (2. order) :-0.3455070E-06  (-0.1542896E-05)
 number of electron      52.0000003 magnetization 
 augmentation part        1.8086586 magnetization 

 DIPCOR: dipole corrections for dipol
 direction  1 min pos     1, direction  2 min pos     1, direction  3 min pos     1,
 dipolmoment          -0.343118     -0.738669      0.430872 electrons x Angstroem
 Tr[quadrupol]        34.132740

 energy correction for charged system         0.000000 eV
 dipol+quadrupol energy correction           -0.003201 eV
 added-field ion interaction         -0.110071 eV  (added to PSCEN)


 Free energy of the ion-electron system (eV)
  ---------------------------------------------------
  alpha Z        PSCENC =         1.31760685
  Ewald energy   TEWEN  =      3937.14618009
  -Hartree energ DENC   =     -5471.17979961
  -exchange      EXHF   =       113.48378156
  -V(xc)+E(xc)   XCENC  =       145.27038904
  PAW double counting   =      4063.98341218    -4073.83439984
  entropy T*S    EENTRO =        -0.00000000
  eigenvalues    EBANDS =      -734.27635030
  atomic energy  EATOM  =      1873.55058303
  ---------------------------------------------------
  free energy    TOTEN  =      -144.53859701 eV

  energy without entropy =     -144.53859701  energy(sigma->0) =     -144.53859701
  exchange ACFDT corr.  =        -0.00000000  see jH, gK, PRB 81, 115126


--------------------------------------------------------------------------------------------------------




--------------------------------------- Iteration      1(  55)  ---------------------------------------


    POTLOK:  cpu time      0.8557: real time      0.8593
    SETDIJ:  cpu time      0.0023: real time      0.0023
    TRIAL :  cpu time      5.1491: real time      5.1804
    CORREC:  cpu time      0.0001: real time      0.0001
    CHARGE:  cpu time      0.1104: real time      0.1113
    --------------------------------------------
      LOOP:  cpu time      6.1179: real time      6.1536

 eigenvalue-minimisations  :     0
 total energy-change (2. order) :-0.1507955E-05  (-0.1606172E-05)
 number of electron      52.0000003 magnetization 
 augmentation part        1.8086594 magnetization 

 DIPCOR: dipole corrections for dipol
 direction  1 min pos     1, direction  2 min pos     1, direction  3 min pos     1,
 dipolmoment          -0.343115     -0.738655      0.430884 electrons x Angstroem
 Tr[quadrupol]        34.132789

 energy correction for charged system         0.000000 eV
 dipol+quadrupol energy correction           -0.003201 eV
 added-field ion interaction         -0.110070 eV  (added to PSCEN)


 Free energy of the ion-electron system (eV)
  ---------------------------------------------------
  alpha Z        PSCENC =         1.31760806
  Ewald energy   TEWEN  =      3937.14618009
  -Hartree energ DENC   =     -5471.17941083
  -exchange      EXHF   =       113.48377824
  -V(xc)+E(xc)   XCENC  =       145.27034552
  PAW double counting   =      4063.98378186    -4073.83476960
  entropy T*S    EENTRO =        -0.00000000
  eigenvalues    EBANDS =      -734.27669488
  atomic energy  EATOM  =      1873.55058303
  ---------------------------------------------------
  free energy    TOTEN  =      -144.53859852 eV

  energy without entropy =     -144.53859852  energy(sigma->0) =     -144.53859852
  exchange ACFDT corr.  =        -0.00000000  see jH, gK, PRB 81, 115126


--------------------------------------------------------------------------------------------------------




--------------------------------------- Iteration      1(  56)  ---------------------------------------


    POTLOK:  cpu time      0.8553: real time      0.8587
    SETDIJ:  cpu time      0.0025: real time      0.0025
    TRIAL :  cpu time      5.1575: real time      5.1883
    CORREC:  cpu time      0.0002: real time      0.0001
    CHARGE:  cpu time      0.1104: real time      0.1113
    --------------------------------------------
      LOOP:  cpu time      6.1260: real time      6.1611

 eigenvalue-minimisations  :     0
 total energy-change (2. order) :-0.6476357E-06  (-0.1481830E-05)
 number of electron      52.0000003 magnetization 
 augmentation part        1.8086589 magnetization 

 DIPCOR: dipole corrections for dipol
 direction  1 min pos     1, direction  2 min pos     1, direction  3 min pos     1,
 dipolmoment          -0.343114     -0.738659      0.430874 electrons x Angstroem
 Tr[quadrupol]        34.132668

 energy correction for charged system         0.000000 eV
 dipol+quadrupol energy correction           -0.003201 eV
 added-field ion interaction         -0.110071 eV  (added to PSCEN)


 Free energy of the ion-electron system (eV)
  ---------------------------------------------------
  alpha Z        PSCENC =         1.31760769
  Ewald energy   TEWEN  =      3937.14618009
  -Hartree energ DENC   =     -5471.18045175
  -exchange      EXHF   =       113.48380322
  -V(xc)+E(xc)   XCENC  =       145.27041455
  PAW double counting   =      4063.98501875    -4073.83600858
  entropy T*S    EENTRO =        -0.00000000
  eigenvalues    EBANDS =      -734.27574617
  atomic energy  EATOM  =      1873.55058303
  ---------------------------------------------------
  free energy    TOTEN  =      -144.53859916 eV

  energy without entropy =     -144.53859916  energy(sigma->0) =     -144.53859916
  exchange ACFDT corr.  =        -0.00000000  see jH, gK, PRB 81, 115126


--------------------------------------------------------------------------------------------------------




--------------------------------------- Iteration      1(  57)  ---------------------------------------


    POTLOK:  cpu time      0.8554: real time      0.8591
    SETDIJ:  cpu time      0.0023: real time      0.0023
    TRIAL :  cpu time      5.1521: real time      5.1832
    CORREC:  cpu time      0.0002: real time      0.0002
    CHARGE:  cpu time      0.1104: real time      0.1114
    --------------------------------------------
      LOOP:  cpu time      6.1206: real time      6.1564

 eigenvalue-minimisations  :     0
 total energy-change (2. order) :-0.5027887E-06  (-0.1394879E-05)
 number of electron      52.0000003 magnetization 
 augmentation part        1.8086595 magnetization 

 DIPCOR: dipole corrections for dipol
 direction  1 min pos     1, direction  2 min pos     1, direction  3 min pos     1,
 dipolmoment          -0.343114     -0.738651      0.430887 electrons x Angstroem
 Tr[quadrupol]        34.132734

 energy correction for charged system         0.000000 eV
 dipol+quadrupol energy correction           -0.003200 eV
 added-field ion interaction         -0.110070 eV  (added to PSCEN)


 Free energy of the ion-electron system (eV)
  ---------------------------------------------------
  alpha Z        PSCENC =         1.31760872
  Ewald energy   TEWEN  =      3937.14618009
  -Hartree energ DENC   =     -5471.17979240
  -exchange      EXHF   =       113.48378790
  -V(xc)+E(xc)   XCENC  =       145.27034744
  PAW double counting   =      4063.98457767    -4073.83556585
  entropy T*S    EENTRO =        -0.00000000
  eigenvalues    EBANDS =      -734.27632627
  atomic energy  EATOM  =      1873.55058303
  ---------------------------------------------------
  free energy    TOTEN  =      -144.53859967 eV

  energy without entropy =     -144.53859967  energy(sigma->0) =     -144.53859967
  exchange ACFDT corr.  =        -0.00000000  see jH, gK, PRB 81, 115126


--------------------------------------------------------------------------------------------------------




--------------------------------------- Iteration      1(  58)  ---------------------------------------


    POTLOK:  cpu time      0.8561: real time      0.8596
    SETDIJ:  cpu time      0.0021: real time      0.0021
    TRIAL :  cpu time      5.1579: real time      5.1888
    CORREC:  cpu time      0.0001: real time      0.0001
    CHARGE:  cpu time      0.1105: real time      0.1113
    --------------------------------------------
      LOOP:  cpu time      6.1268: real time      6.1623

 eigenvalue-minimisations  :     0
 total energy-change (2. order) :-0.9154883E-06  (-0.1186172E-05)
 number of electron      52.0000003 magnetization 
 augmentation part        1.8086594 magnetization 

 DIPCOR: dipole corrections for dipol
 direction  1 min pos     1, direction  2 min pos     1, direction  3 min pos     1,
 dipolmoment          -0.343112     -0.738664      0.430877 electrons x Angstroem
 Tr[quadrupol]        34.132665

 energy correction for charged system         0.000000 eV
 dipol+quadrupol energy correction           -0.003201 eV
 added-field ion interaction         -0.110071 eV  (added to PSCEN)


 Free energy of the ion-electron system (eV)
  ---------------------------------------------------
  alpha Z        PSCENC =         1.31760722
  Ewald energy   TEWEN  =      3937.14618009
  -Hartree energ DENC   =     -5471.18064720
  -exchange      EXHF   =       113.48381114
  -V(xc)+E(xc)   XCENC  =       145.27039508
  PAW double counting   =      4063.98582672    -4073.83681651
  entropy T*S    EENTRO =        -0.00000000
  eigenvalues    EBANDS =      -734.27554014
  atomic energy  EATOM  =      1873.55058303
  ---------------------------------------------------
  free energy    TOTEN  =      -144.53860058 eV

  energy without entropy =     -144.53860058  energy(sigma->0) =     -144.53860058
  exchange ACFDT corr.  =        -0.00000000  see jH, gK, PRB 81, 115126


--------------------------------------------------------------------------------------------------------




--------------------------------------- Iteration      1(  59)  ---------------------------------------


    POTLOK:  cpu time      0.8556: real time      0.8593
    SETDIJ:  cpu time      0.0025: real time      0.0025
    TRIAL :  cpu time      5.1539: real time      5.1860
    CORREC:  cpu time      0.0001: real time      0.0001
    CHARGE:  cpu time      0.1105: real time      0.1114
    --------------------------------------------
      LOOP:  cpu time      6.1230: real time      6.1601

 eigenvalue-minimisations  :     0
 total energy-change (2. order) :-0.2859906E-06  (-0.1118567E-05)
 number of electron      52.0000003 magnetization 
 augmentation part        1.8086592 magnetization 

 DIPCOR: dipole corrections for dipol
 direction  1 min pos     1, direction  2 min pos     1, direction  3 min pos     1,
 dipolmoment          -0.343107     -0.738654      0.430880 electrons x Angstroem
 Tr[quadrupol]        34.132661

 energy correction for charged system         0.000000 eV
 dipol+quadrupol energy correction           -0.003200 eV
 added-field ion interaction         -0.110069 eV  (added to PSCEN)


 Free energy of the ion-electron system (eV)
  ---------------------------------------------------
  alpha Z        PSCENC =         1.31760952
  Ewald energy   TEWEN  =      3937.14618009
  -Hartree energ DENC   =     -5471.18037686
  -exchange      EXHF   =       113.48380369
  -V(xc)+E(xc)   XCENC  =       145.27042387
  PAW double counting   =      4063.98575945    -4073.83674863
  entropy T*S    EENTRO =        -0.00000000
  eigenvalues    EBANDS =      -734.27583504
  atomic energy  EATOM  =      1873.55058303
  ---------------------------------------------------
  free energy    TOTEN  =      -144.53860087 eV

  energy without entropy =     -144.53860087  energy(sigma->0) =     -144.53860087
  exchange ACFDT corr.  =        -0.00000000  see jH, gK, PRB 81, 115126


--------------------------------------------------------------------------------------------------------




--------------------------------------- Iteration      1(  60)  ---------------------------------------


    POTLOK:  cpu time      0.8553: real time      0.8587
    SETDIJ:  cpu time      0.0024: real time      0.0024
    TRIAL :  cpu time      5.1520: real time      5.1825
    CORREC:  cpu time      0.0002: real time      0.0002
    EDDIAG:  cpu time      4.8513: real time      4.8805
    CHARGE:  cpu time      0.1107: real time      0.1113
    --------------------------------------------
      LOOP:  cpu time     10.9722: real time     11.0360

 eigenvalue-minimisations  :     0
 total energy-change (2. order) :-0.1110302E-06  (-0.9740513E-06)
 number of electron      52.0000003 magnetization 
 augmentation part        1.8086597 magnetization 

 DIPCOR: dipole corrections for dipol
 direction  1 min pos     1, direction  2 min pos     1, direction  3 min pos     1,
 dipolmoment          -0.343110     -0.738658      0.430878 electrons x Angstroem
 Tr[quadrupol]        34.132710

 energy correction for charged system         0.000000 eV
 dipol+quadrupol energy correction           -0.003200 eV
 added-field ion interaction         -0.110070 eV  (added to PSCEN)


 Free energy of the ion-electron system (eV)
  ---------------------------------------------------
  alpha Z        PSCENC =         1.31760827
  Ewald energy   TEWEN  =      3937.14618009
  -Hartree energ DENC   =     -5471.18002594
  -exchange      EXHF   =       113.48381555
  -V(xc)+E(xc)   XCENC  =       145.27034741
  PAW double counting   =      4063.98585275    -4073.83684096
  entropy T*S    EENTRO =        -0.00000000
  eigenvalues    EBANDS =      -734.27610504
  atomic energy  EATOM  =      1873.55058303
  ---------------------------------------------------
  free energy    TOTEN  =      -144.53860098 eV

  energy without entropy =     -144.53860098  energy(sigma->0) =     -144.53860098
  exchange ACFDT corr.  =        -0.00000000  see jH, gK, PRB 81, 115126


--------------------------------------------------------------------------------------------------------


  average scaling for gradient   0.6158


 average (electrostatic) potential at core
  the test charge radii are     0.6991  0.5201  0.7089  0.7215
  (the norm of the test charge is              1.0000)
       1 -55.2793       2 -55.6084       3 -55.3734       4 -56.2881       5 -55.6875
       6 -56.5260       7 -56.4369       8 -39.0528       9 -39.0230      10 -38.8126
      11 -38.9643      12 -38.6961      13 -39.1303      14 -38.5923      15 -38.9457
      16 -41.2668      17 -39.2222      18 -39.0069      19 -39.6667      20 -39.7413
      21 -68.8554      22 -75.2271
 
 
 
 E-fermi :  -7.3093     XC(G=0):  -0.2579     alpha+bet : -0.1550

 Fermi energy:        -7.3093022476

 k-point     1 :       0.0000    0.0000    0.0000
  band No.  band energies     occupation 
      1     -28.1729      2.00000
      2     -24.7372      2.00000
      3     -23.4033      2.00000
      4     -21.6796      2.00000
      5     -19.7856      2.00000
      6     -18.7307      2.00000
      7     -17.6601      2.00000
      8     -15.7235      2.00000
      9     -14.3307      2.00000
     10     -14.1073      2.00000
     11     -13.4835      2.00000
     12     -13.2379      2.00000
     13     -12.6301      2.00000
     14     -12.1069      2.00000
     15     -11.7313      2.00000
     16     -11.3321      2.00000
     17     -10.9743      2.00000
     18     -10.2956      2.00000
     19      -9.9753      2.00000
     20      -9.9370      2.00000
     21      -9.5983      2.00000
     22      -9.4572      2.00000
     23      -8.9528      2.00000
     24      -8.8754      2.00000
     25      -8.6811      2.00000
     26      -7.5383      2.00000
     27      -0.5335      0.00000
     28      -0.1641      0.00000
     29      -0.0758      0.00000
     30       0.0580      0.00000
     31       0.1882      0.00000
     32       0.2933      0.00000
     33       0.4335      0.00000
     34       0.5039      0.00000
     35       0.5217      0.00000
     36       0.5642      0.00000
     37       0.5881      0.00000
     38       0.6293      0.00000
     39       0.6820      0.00000
     40       0.7660      0.00000


--------------------------------------------------------------------------------------------------------


 soft charge-density along one line, spin component           1
         0         1         2         3         4         5         6         7         8         9
 total charge-density along one line
 
 pseudopotential strength for first ion, spin component:           1
 10.007  13.303  -0.000  -0.000   0.000   0.001   0.000  -0.000
 13.303  17.683  -0.000  -0.000   0.000   0.001   0.001  -0.000
 -0.000  -0.000  -4.281   0.001   0.000   8.394  -0.001  -0.001
 -0.000  -0.000   0.001  -4.283  -0.001  -0.001   8.397   0.001
  0.000   0.000   0.000  -0.001  -4.282  -0.001   0.001   8.395
  0.001   0.001   8.394  -0.001  -0.001 -18.584   0.002   0.001
  0.000   0.001  -0.001   8.397   0.001   0.002 -18.589  -0.002
 -0.000  -0.000  -0.001   0.001   8.395   0.001  -0.002 -18.585
 total augmentation occupancy for first ion, spin component:           1
  7.459  -3.191  -0.014  -0.044   0.034  -0.009  -0.012   0.009
 -3.191   1.389   0.003   0.026  -0.025   0.007   0.008  -0.006
 -0.014   0.003   1.591  -0.004  -0.026   0.130   0.001  -0.004
 -0.044   0.026  -0.004   1.615   0.009   0.001   0.134   0.001
  0.034  -0.025  -0.026   0.009   1.608  -0.004   0.001   0.128
 -0.009   0.007   0.130   0.001  -0.004   0.011   0.000  -0.001
 -0.012   0.008   0.001   0.134   0.001   0.000   0.011   0.000
  0.009  -0.006  -0.004   0.001   0.128  -0.001   0.000   0.011


------------------------ aborting loop because EDIFF is reached ----------------------------------------





 total charge

# of ion       s       p       d       tot
------------------------------------------
    1        0.840   1.793   0.000   2.633
    2        0.837   1.807   0.000   2.644
    3        0.845   1.790   0.000   2.635
    4        0.828   1.739   0.000   2.568
    5        0.842   1.797   0.000   2.640
    6        0.832   1.787   0.000   2.619
    7        0.939   1.788   0.000   2.727
    8        0.656   0.046   0.000   0.702
    9        0.644   0.043   0.000   0.687
   10        0.636   0.041   0.000   0.677
   11        0.654   0.042   0.000   0.696
   12        0.640   0.040   0.000   0.680
   13        0.655   0.044   0.000   0.700
   14        0.658   0.042   0.000   0.700
   15        0.665   0.046   0.000   0.711
   16        0.625   0.120   0.000   0.745
   17        0.656   0.046   0.000   0.702
   18        0.645   0.042   0.000   0.687
   19        0.634   0.043   0.000   0.677
   20        0.636   0.043   0.000   0.679
   21        1.329   2.482   0.000   3.811
   22        1.557   3.631   0.000   5.188
--------------------------------------------------
tot         17.254  19.253   0.000  36.507
 
    FORLOC:  cpu time      0.0553: real time      0.0555
    FORHF :  cpu time      2.7557: real time      2.7721
    FORNL :  cpu time      0.0992: real time      0.0998
    FORCOR:  cpu time      0.8199: real time      0.8229
    OFIELD:  cpu time      0.0019: real time      0.0020

 VOLUME and BASIS-vectors are now :
 -----------------------------------------------------------------------------
  energy-cutoff  :      500.00
  volume of cell :     8000.00
      direct lattice vectors                 reciprocal lattice vectors
    20.000000000  0.000000000  0.000000000     0.050000000  0.000000000  0.000000000
     0.000000000 20.000000000  0.000000000     0.000000000  0.050000000  0.000000000
     0.000000000  0.000000000 20.000000000     0.000000000  0.000000000  0.050000000

  length of vectors
    20.000000000 20.000000000 20.000000000     0.050000000  0.050000000  0.050000000


 FORCES acting on ions:
    Electron-Ion                     Ewald-Force                    Non-Local-Force
 -----------------------------------------------------------------------------------------------
   0.728E+02 -.191E+03 -.578E+02   -.727E+02 0.191E+03 0.581E+02   0.407E+00 0.857E+00 0.108E+00
   0.377E+01 -.615E+02 0.110E+03   -.362E+01 0.619E+02 -.111E+03   0.116E+00 -.443E-01 -.423E+00
   -.129E+03 -.155E+02 0.109E+03   0.129E+03 0.162E+02 -.108E+03   0.980E+00 0.821E+00 -.355E+00
   0.111E+02 0.818E+01 -.123E+03   -.175E+02 -.772E+01 0.122E+03   0.525E+01 -.148E+01 0.401E+00
   0.942E+01 0.114E+03 0.509E+01   -.764E+01 -.115E+03 -.472E+01   -.199E+01 -.111E+01 -.109E+01
   0.127E+03 -.378E+02 0.617E+02   -.125E+03 0.420E+02 -.623E+02   -.358E+01 -.360E+01 0.668E+00
   0.559E+02 -.670E+01 0.210E+02   -.547E+02 0.913E+01 -.215E+02   -.179E+01 -.278E+01 0.283E+00
   0.564E+02 -.606E+02 0.222E+02   -.610E+02 0.632E+02 -.244E+02   0.430E+01 -.245E+01 0.262E+01
   0.263E+02 -.200E+02 -.754E+02   -.275E+02 0.189E+02 0.802E+02   0.837E+00 0.116E+01 -.521E+01
   -.320E+02 -.786E+02 -.590E+01   0.352E+02 0.820E+02 0.601E+01   -.383E+01 -.350E+01 -.579E-01
   0.915E+00 -.304E+02 0.892E+02   -.128E+01 0.317E+02 -.941E+02   0.340E+00 -.141E+01 0.514E+01
   -.533E+02 -.659E+02 0.324E+02   0.556E+02 0.697E+02 -.334E+02   -.242E+01 -.443E+01 0.971E+00
   -.481E+02 0.450E+02 0.615E+02   0.503E+02 -.489E+02 -.647E+02   -.227E+01 0.364E+01 0.342E+01
   0.204E+02 0.649E+02 -.441E+02   -.229E+02 -.691E+02 0.456E+02   0.277E+01 0.446E+01 -.125E+01
   0.925E+01 -.511E+02 -.694E+02   -.110E+02 0.554E+02 0.729E+02   0.180E+01 -.419E+01 -.352E+01
   -.831E+02 0.362E+02 0.653E+02   0.870E+02 -.386E+02 -.715E+02   -.405E+01 0.239E+01 0.656E+01
   0.530E+01 0.459E+02 -.672E+02   -.491E+01 -.480E+02 0.724E+02   -.160E+00 0.220E+01 -.518E+01
   -.256E+02 0.666E+02 0.504E+02   0.275E+02 -.701E+02 -.532E+02   -.204E+01 0.366E+01 0.329E+01
   0.580E+02 -.484E+02 -.312E+02   -.603E+02 0.519E+02 0.340E+02   0.230E+01 -.382E+01 -.306E+01
   0.307E+02 -.227E+02 0.768E+02   -.314E+02 0.242E+02 -.817E+02   0.684E+00 -.173E+01 0.513E+01
   0.180E+03 0.252E+03 -.254E+02   -.200E+03 -.287E+03 0.308E+02   0.192E+02 0.334E+02 -.506E+01
   -.294E+03 0.391E+02 -.166E+03   0.316E+03 -.328E+02 0.209E+03   -.180E+02 -.581E+01 -.374E+02
 -----------------------------------------------------------------------------------------------
   0.193E+01 -.178E+02 0.388E+02   -.568E-13 0.924E-13 0.000E+00   -.113E+01 0.163E+02 -.341E+02
 
 
 POSITION                                       TOTAL-FORCE (eV/Angst)
 -----------------------------------------------------------------------------------
      9.59105     11.66154     10.24480         0.521048      1.329795      0.393179
     10.07879     10.49218      9.43985         0.270296      0.379610     -0.896008
     11.53074     10.26381      9.72787         1.291567      1.564246     -0.122325
     11.79070      9.96827     11.19031        -0.909926     -1.089115     -0.263181
      9.30625      9.24030      9.64242        -0.311413     -1.576804     -0.778291
      7.84532      9.38825      9.27441        -0.994218      0.476366      0.115354
      7.13642      8.12719      9.49376        -0.792813     -0.635245     -0.186183
      8.73749     12.12607      9.74505        -0.115828      0.018717      0.545743
      9.40717     11.40652     11.30523        -0.305536      0.189119     -0.577101
     10.42031     12.41502     10.25171        -0.843314     -0.298633      0.055238
      9.99707     10.77735      8.36872        -0.012898     -0.191785      0.390216
     12.05730     11.23396      9.51030        -0.199057     -0.823884     -0.022661
     11.98300      9.51410      9.06312        -0.156716     -0.110217      0.286583
     11.21017      9.05212     11.44483         0.368680      0.431512      0.208245
     11.44404     10.77350     11.84584         0.163458     -0.113095     -0.155157
     13.59655      9.47027     10.61921        -0.321461      0.121811      0.549074
      9.34186      8.83103     10.65922         0.222263      0.231876     -0.203112
      9.73231      8.47475      8.95260        -0.189296      0.218417      0.623000
      7.36996     10.16786      9.91110         0.166803     -0.495043     -0.356519
      7.71095      9.72816      8.22730         0.058389     -0.305323      0.451357
      6.56767      7.12790      9.64917         0.569017      0.846435     -0.072953
     13.14489      9.75987     11.43319         1.520955     -0.168761      0.015504
 -----------------------------------------------------------------------------------
    total drift:                                0.001275     -0.000763      0.000269


--------------------------------------------------------------------------------------------------------



  FREE ENERGIE OF THE ION-ELECTRON SYSTEM (eV)
  ---------------------------------------------------
  free  energy   TOTEN  =      -144.53860098 eV

  energy  without entropy=     -144.53860098  energy(sigma->0) =     -144.53860098
 


--------------------------------------------------------------------------------------------------------


    POTLOK:  cpu time      0.8577: real time      0.8612


--------------------------------------------------------------------------------------------------------


 writing wavefunctions
     LOOP+:  cpu time    373.0811: real time    378.9690
    4ORBIT:  cpu time      0.0000: real time      0.0000



 total charge

# of ion       s       p       d       tot
------------------------------------------
    1        0.840   1.793   0.000   2.633
    2        0.837   1.807   0.000   2.644
    3        0.845   1.790   0.000   2.635
    4        0.828   1.739   0.000   2.568
    5        0.842   1.797   0.000   2.640
    6        0.832   1.787   0.000   2.619
    7        0.939   1.788   0.000   2.727
    8        0.656   0.046   0.000   0.702
    9        0.644   0.043   0.000   0.687
   10        0.636   0.041   0.000   0.677
   11        0.654   0.042   0.000   0.696
   12        0.640   0.040   0.000   0.680
   13        0.655   0.044   0.000   0.700
   14        0.658   0.042   0.000   0.700
   15        0.665   0.046   0.000   0.711
   16        0.625   0.120   0.000   0.745
   17        0.656   0.046   0.000   0.702
   18        0.645   0.042   0.000   0.687
   19        0.634   0.043   0.000   0.677
   20        0.636   0.043   0.000   0.679
   21        1.329   2.482   0.000   3.811
   22        1.557   3.631   0.000   5.188
--------------------------------------------------
tot         17.254  19.253   0.000  36.507
 

 total amount of memory used by VASP MPI-rank0   763970. kBytes
=======================================================================

   base      :      30000. kBytes
   nonl-proj :      30905. kBytes
   fftplans  :      75720. kBytes
   grid      :      99427. kBytes
   one-center:         18. kBytes
   HF        :         13. kBytes
   nonlr-proj:        987. kBytes
   wavefun   :      12207. kBytes
   fock_wrk  :     514693. kBytes
 
  
  
 General timing and accounting informations for this job:
 ========================================================
  
                  Total CPU time used (sec):      390.587
                            User time (sec):      344.371
                          System time (sec):       46.215
                         Elapsed time (sec):      401.396
  
                   Maximum memory used (kb):     1243688.
                   Average memory used (kb):          N/A
  
                          Minor page faults:      1499873
                          Major page faults:           59
                 Voluntary context switches:        20846
