Molecule_POSCAR_07
1.0
20.000000 0.000000 0.000000
0.000000 20.000000 0.000000
0.000000 0.000000 20.000000
C H N O
7 13 1 1
Cartesian
9.591047 11.661540 10.244803
10.078790 10.492182 9.439849
11.530741 10.263805 9.727873
11.790701 9.968267 11.190310
9.306251 9.240302 9.642422
7.845318 9.388247 9.274412
7.136421 8.127194 9.493761
8.737488 12.126065 9.745051
9.407166 11.406516 11.305226
10.420308 12.415020 10.251705
9.997067 10.777351 8.368724
12.057298 11.233963 9.510295
11.982995 9.514098 9.063118
11.210167 9.052117 11.444826
11.444040 10.773500 11.845836
13.596554 9.470268 10.619211
9.341864 8.831031 10.659225
9.732313 8.474750 8.952596
7.369959 10.167863 9.911103
7.710951 9.728159 8.227303
6.567674 7.127896 9.649165
13.144886 9.759868 11.433186
