 vasp.5.4.1 24Jun15 (build Feb 10 2025 21:25:14) gamma-only                     
  
 executed on           IFC91_ompi date 2026.02.18  15:58:40
 running on    4 total cores
 distrk:  each k-point on    4 cores,    1 groups
 distr:  one band on NCORES_PER_BAND=   1 cores,    4 groups


--------------------------------------------------------------------------------------------------------


 INCAR:
 POTCAR:    PAW_PBE C 08Apr2002                   
 POTCAR:    PAW_PBE H 15Jun2001                   
 POTCAR:    PAW_PBE Si 05Jan2001                  
 POTCAR:    PAW_PBE C 08Apr2002                   
   VRHFIN =C: s2p2                                                              
   LEXCH  = PE                                                                  
   EATOM  =   147.1560 eV,   10.8157 Ry                                         
                                                                                
   TITEL  = PAW_PBE C 08Apr2002                                                 
   LULTRA =        F    use ultrasoft PP ?                                      
   IUNSCR =        1    unscreen: 0-lin 1-nonlin 2-no                           
   RPACOR =    1.200    partial core radius                                     
   POMASS =   12.011; ZVAL   =    4.000    mass and valenz                      
   RCORE  =    1.500    outmost cutoff radius                                   
   RWIGS  =    1.630; RWIGS  =    0.863    wigner-seitz radius (au A)           
   ENMAX  =  400.000; ENMIN  =  300.000 eV                                      
   ICORE  =        2    local potential                                         
   LCOR   =        T    correct aug charges                                     
   LPAW   =        T    paw PP                                                  
   EAUG   =  644.873                                                            
   DEXC   =    0.000                                                            
   RMAX   =    1.529    core radius for proj-oper                               
   RAUG   =    1.300    factor for augmentation sphere                          
   RDEP   =    1.501    radius for radial grids                                 
   RDEPT  =    1.300    core radius for aug-charge                              
                                                                                
   Atomic configuration                                                         
    4 entries                                                                   
     n  l   j            E        occ.                                          
     1  0  0.50      -273.3789   2.0000                                         
     2  0  0.50       -13.7508   2.0000                                         
     2  1  0.50        -5.2854   2.0000                                         
     3  2  1.50        -5.4423   0.0000                                         
   Description                                                                  
     l       E           TYP  RCUT    TYP  RCUT                                 
     0    -13.7508458     23  1.200                                             
     0     -8.2022199     23  1.200                                             
     1     -5.2854383     23  1.500                                             
     1     34.0145650     23  1.500                                             
     2     -5.4423304      7  1.500                                             
  local pseudopotential read in
  partial core-charges read in
  partial kinetic energy density read in
  atomic valenz-charges read in
  non local Contribution for L=           0  read in
    real space projection operators read in
  non local Contribution for L=           0  read in
    real space projection operators read in
  non local Contribution for L=           1  read in
    real space projection operators read in
  non local Contribution for L=           1  read in
    real space projection operators read in
    PAW grid and wavefunctions read in
 
   number of l-projection  operators is LMAX  =           4
   number of lm-projection operators is LMMAX =           8
 
 POTCAR:    PAW_PBE H 15Jun2001                   
   VRHFIN =H: ultrasoft test                                                    
   LEXCH  = PE                                                                  
   EATOM  =    12.4884 eV,    0.9179 Ry                                         
                                                                                
   TITEL  = PAW_PBE H 15Jun2001                                                 
   LULTRA =        F    use ultrasoft PP ?                                      
   IUNSCR =        0    unscreen: 0-lin 1-nonlin 2-no                           
   RPACOR =    0.000    partial core radius                                     
   POMASS =    1.000; ZVAL   =    1.000    mass and valenz                      
   RCORE  =    1.100    outmost cutoff radius                                   
   RWIGS  =    0.700; RWIGS  =    0.370    wigner-seitz radius (au A)           
   ENMAX  =  250.000; ENMIN  =  200.000 eV                                      
   RCLOC  =    0.701    cutoff for local pot                                    
   LCOR   =        T    correct aug charges                                     
   LPAW   =        T    paw PP                                                  
   EAUG   =  400.000                                                            
   RMAX   =    1.123    core radius for proj-oper                               
   RAUG   =    1.200    factor for augmentation sphere                          
   RDEP   =    1.112    radius for radial grids                                 
   RDEPT  =    0.926    core radius for aug-charge                              
                                                                                
   Atomic configuration                                                         
    2 entries                                                                   
     n  l   j            E        occ.                                          
     1  0  0.50        -6.4927   1.0000                                         
     2  1  0.50        -3.4015   0.0000                                         
   Description                                                                  
     l       E           TYP  RCUT    TYP  RCUT                                 
     0     -6.4927494     23  1.100                                             
     0      6.8029130     23  1.100                                             
     1     -4.0817478     23  1.100                                             
  local pseudopotential read in
  atomic valenz-charges read in
  non local Contribution for L=           0  read in
    real space projection operators read in
  non local Contribution for L=           0  read in
    real space projection operators read in
  non local Contribution for L=           1  read in
    real space projection operators read in
    PAW grid and wavefunctions read in
 
   number of l-projection  operators is LMAX  =           3
   number of lm-projection operators is LMMAX =           5
 
 POTCAR:    PAW_PBE Si 05Jan2001                  
   VRHFIN =Si: s2p2                                                             
   LEXCH  = PE                                                                  
   EATOM  =   103.0669 eV,    7.5752 Ry                                         
                                                                                
   TITEL  = PAW_PBE Si 05Jan2001                                                
   LULTRA =        F    use ultrasoft PP ?                                      
   IUNSCR =        1    unscreen: 0-lin 1-nonlin 2-no                           
   RPACOR =    1.500    partial core radius                                     
   POMASS =   28.085; ZVAL   =    4.000    mass and valenz                      
   RCORE  =    1.900    outmost cutoff radius                                   
   RWIGS  =    2.480; RWIGS  =    1.312    wigner-seitz radius (au A)           
   ENMAX  =  245.345; ENMIN  =  184.009 eV                                      
   ICORE  =        2    local potential                                         
   LCOR   =        T    correct aug charges                                     
   LPAW   =        T    paw PP                                                  
   EAUG   =  322.069                                                            
   DEXC   =    0.000                                                            
   RMAX   =    1.950    core radius for proj-oper                               
   RAUG   =    1.300    factor for augmentation sphere                          
   RDEP   =    1.993    radius for radial grids                                 
   RDEPT  =    1.837    core radius for aug-charge                              
                                                                                
   Atomic configuration                                                         
    6 entries                                                                   
     n  l   j            E        occ.                                          
     1  0  0.50     -1785.8828   2.0000                                         
     2  0  0.50      -139.4969   2.0000                                         
     2  1  1.50       -95.5546   6.0000                                         
     3  0  0.50       -10.8127   2.0000                                         
     3  1  0.50        -4.0811   2.0000                                         
     3  2  1.50        -4.0817   0.0000                                         
   Description                                                                  
     l       E           TYP  RCUT    TYP  RCUT                                 
     0    -10.8127223     23  1.900                                             
     0     -7.6451159     23  1.900                                             
     1     -4.0811372     23  1.900                                             
     1      2.4879257     23  1.900                                             
     2     -4.0817478      7  1.900                                             
  local pseudopotential read in
  partial core-charges read in
  partial kinetic energy density read in
  atomic valenz-charges read in
  non local Contribution for L=           0  read in
    real space projection operators read in
  non local Contribution for L=           0  read in
    real space projection operators read in
  non local Contribution for L=           1  read in
    real space projection operators read in
  non local Contribution for L=           1  read in
    real space projection operators read in
    PAW grid and wavefunctions read in
 
   number of l-projection  operators is LMAX  =           4
   number of lm-projection operators is LMMAX =           8
 

 ----------------------------------------------------------------------------- 
|                                                                             |
|  ADVICE TO THIS USER RUNNING 'VASP/VAMP'   (HEAR YOUR MASTER'S VOICE ...):  |
|                                                                             |
|      You have a (more or less) 'large supercell' and for larger cells       |
|      it might be more efficient to use real space projection opertators     |
|      So try LREAL= Auto  in the INCAR   file.                               |
|      Mind: At the moment your POTCAR file does not contain real space       |
|       projectors, and has to be modified,  BUT if you                       |
|      want to do an extremely  accurate calculation you might also keep the  |
|      reciprocal projection scheme          (i.e. LREAL=.FALSE.)             |
|                                                                             |
 ----------------------------------------------------------------------------- 

  PAW_PBE C 08Apr2002                   :
 energy of atom  1       EATOM= -147.1560
 kinetic energy error for atom=    0.0076 (will be added to EATOM!!)
  PAW_PBE H 15Jun2001                   :
 energy of atom  2       EATOM=  -12.4884
 kinetic energy error for atom=    0.0020 (will be added to EATOM!!)
  PAW_PBE Si 05Jan2001                  :
 energy of atom  3       EATOM= -103.0669
 kinetic energy error for atom=    0.0006 (will be added to EATOM!!)
 
 
 POSCAR: Molecule_POSCAR_01                      
  positions in cartesian coordinates
  No initial velocities read in
 exchange correlation table for  LEXCH =        8
   RHO(1)=    0.500       N(1)  =     2000
   RHO(2)=  100.500       N(2)  =     4000

 VTST: version 3.2, (02/03/18)

 CHAIN: initializing optimizer
 
 OPT: Using VASP Dynamics algorithm
 CHAIN: Read ICHAIN            0
 
 POSCAR: Molecule_POSCAR_01                      
  positions in cartesian coordinates
  No initial velocities read in
 


--------------------------------------------------------------------------------------------------------


 ion  position               nearest neighbor table
   1  0.645  0.443  0.422-  55 1.09  54 1.11  53 1.13   2 1.52
   2  0.688  0.445  0.448-  56 1.13   1 1.52   3 1.53 113 1.83
   3  0.718  0.408  0.431-  59 1.08  58 1.10  57 1.14   2 1.53
   4  0.624  0.474  0.520-   5 1.20 113 1.86
   5  0.590  0.493  0.527-   4 1.20   6 1.51
   6  0.547  0.517  0.535-  46 1.33   7 1.40   5 1.51
   7  0.521  0.494  0.566-  12 1.36   8 1.36   6 1.40
   8  0.541  0.470  0.599-  60 1.07   7 1.36   9 1.38
   9  0.516  0.449  0.631-  61 1.09  10 1.36   8 1.38
  10  0.470  0.453  0.628-  62 1.07   9 1.36  11 1.39
  11  0.450  0.478  0.595-  63 1.09  12 1.36  10 1.39
  12  0.476  0.499  0.564-   7 1.36  11 1.36  13 1.42
  13  0.457  0.525  0.530-  25 1.33  12 1.42  14 1.46
  14  0.410  0.515  0.523-  15 1.21  13 1.46
  15  0.371  0.506  0.517-  14 1.21 114 1.86
  16  0.301  0.482  0.450-  64 1.09  18 1.52  17 1.53 114 1.82
  17  0.259  0.456  0.440-  67 1.08  65 1.08  66 1.13  16 1.53
  18  0.341  0.458  0.431-  69 1.08  70 1.11  68 1.13  16 1.52
  19  0.279  0.537  0.534-  71 1.12  20 1.51  21 1.53 114 1.82
  20  0.239  0.518  0.558-  74 1.09  73 1.10  72 1.13  19 1.51
  21  0.306  0.566  0.566-  75 1.09  77 1.10  76 1.13  19 1.53
  22  0.303  0.438  0.542-  78 1.13  24 1.46  23 1.52 114 1.91
  23  0.318  0.445  0.590-  81 1.09  79 1.12  80 1.12  22 1.52
  24  0.259  0.418  0.538-  82 1.08  84 1.14  83 1.16  22 1.46
  25  0.482  0.547  0.500-  13 1.33  26 1.36  46 1.42
  26  0.463  0.575  0.471-  25 1.36  33 1.42  27 1.45
  27  0.416  0.584  0.464-  28 1.38  32 1.40  26 1.45
  28  0.390  0.611  0.490-  85 1.06  27 1.38  29 1.39
  29  0.347  0.621  0.477-  86 1.08  30 1.37  28 1.39
  30  0.329  0.603  0.438-  87 1.10  31 1.36  29 1.37
  31  0.355  0.576  0.413-  88 1.10  32 1.35  30 1.36
  32  0.397  0.566  0.425-  89 1.08  31 1.35  27 1.40
  33  0.492  0.600  0.443-  38 1.37  34 1.40  26 1.42
  34  0.472  0.629  0.412-  90 1.09  35 1.38  33 1.40
  35  0.499  0.654  0.385-  91 1.10  36 1.37  34 1.38
  36  0.545  0.651  0.387-  92 1.06  35 1.37  37 1.40
  37  0.564  0.621  0.418-  93 1.07  38 1.37  36 1.40
  38  0.538  0.596  0.445-  37 1.37  33 1.37  39 1.41
  39  0.557  0.567  0.476-  46 1.35  38 1.41  40 1.44
  40  0.604  0.569  0.480-  41 1.36  45 1.37  39 1.44
  41  0.633  0.557  0.447-  94 1.08  40 1.36  42 1.40
  42  0.679  0.562  0.452-  95 1.07  43 1.39  41 1.40
  43  0.696  0.579  0.491-  96 1.10  44 1.37  42 1.39
  44  0.667  0.591  0.524-  97 1.07  45 1.37  43 1.37
  45  0.622  0.586  0.519-  98 1.07  44 1.37  40 1.37
  46  0.529  0.543  0.503-   6 1.33  39 1.35  25 1.42
  47  0.720  0.471  0.543-  99 1.13  48 1.51  49 1.52 113 1.84
  48  0.763  0.478  0.517- 102 1.10 100 1.11 101 1.11  47 1.51
  49  0.730  0.446  0.586- 105 1.10 103 1.12 104 1.12  47 1.52
  50  0.668  0.383  0.525- 106 1.13  52 1.48  51 1.49 113 1.90
  51  0.630  0.366  0.498- 107 1.08 109 1.13 108 1.13  50 1.49
  52  0.709  0.357  0.519- 110 1.09 111 1.12 112 1.13  50 1.48
  53  0.652  0.462  0.390-   1 1.13
  54  0.638  0.408  0.411-   1 1.11
  55  0.615  0.454  0.440-   1 1.09
  56  0.707  0.476  0.441-   2 1.13
  57  0.719  0.415  0.393-   3 1.14
  58  0.753  0.413  0.441-   3 1.10
  59  0.704  0.375  0.434-   3 1.08
  60  0.577  0.468  0.599-   8 1.07
  61  0.531  0.429  0.657-   9 1.09
  62  0.449  0.437  0.652-  10 1.07
  63  0.414  0.481  0.593-  11 1.09
  64  0.297  0.513  0.433-  16 1.09
  65  0.231  0.473  0.456-  17 1.08
  66  0.255  0.455  0.402-  17 1.13
  67  0.262  0.422  0.451-  17 1.08
  68  0.336  0.421  0.438-  18 1.13
  69  0.348  0.465  0.396-  18 1.08
  70  0.371  0.466  0.451-  18 1.11
  71  0.267  0.560  0.507-  19 1.12
  72  0.226  0.543  0.584-  20 1.13
  73  0.248  0.488  0.578-  20 1.10
  74  0.212  0.510  0.535-  20 1.09
  75  0.342  0.557  0.566-  21 1.09
  76  0.293  0.560  0.600-  21 1.13
  77  0.302  0.601  0.559-  21 1.10
  78  0.328  0.414  0.527-  22 1.13
  79  0.327  0.481  0.594-  23 1.12
  80  0.350  0.427  0.597-  23 1.12
  81  0.294  0.434  0.615-  23 1.09
  82  0.232  0.436  0.523-  24 1.08
  83  0.248  0.405  0.573-  24 1.16
  84  0.261  0.385  0.520-  24 1.14
  85  0.404  0.625  0.520-  28 1.06
  86  0.326  0.642  0.496-  29 1.08
  87  0.295  0.611  0.428-  30 1.10
  88  0.339  0.563  0.382-  31 1.10
  89  0.417  0.544  0.405-  32 1.08
  90  0.436  0.632  0.411-  34 1.09
  91  0.483  0.677  0.362-  35 1.10
  92  0.566  0.670  0.367-  36 1.06
  93  0.600  0.620  0.419-  37 1.07
  94  0.622  0.543  0.416-  41 1.08
  95  0.702  0.553  0.426-  42 1.07
  96  0.732  0.584  0.495-  43 1.10
  97  0.682  0.604  0.554-  44 1.07
  98  0.600  0.595  0.545-  45 1.07
  99  0.709  0.505  0.554-  47 1.13
 100  0.778  0.446  0.509-  48 1.11
 101  0.785  0.502  0.534-  48 1.11
 102  0.753  0.495  0.485-  48 1.10
 103  0.765  0.436  0.585-  49 1.12
 104  0.724  0.467  0.616-  49 1.12
 105  0.708  0.417  0.589-  49 1.10
 106  0.656  0.384  0.561-  50 1.13
 107  0.637  0.351  0.466-  51 1.08
 108  0.606  0.395  0.493-  51 1.13
 109  0.609  0.341  0.518-  51 1.13
 110  0.739  0.376  0.508-  52 1.09
 111  0.702  0.327  0.498-  52 1.12
 112  0.718  0.344  0.553-  52 1.13
 113  0.677  0.444  0.509-   2 1.83  47 1.84   4 1.86  50 1.90
 114  0.311  0.491  0.509-  16 1.82  19 1.82  15 1.86  22 1.91
 
  LATTYP: Found a simple cubic cell.
 ALAT       =    30.0000000000
  
  Lattice vectors:
  
 A1 = (  30.0000000000,   0.0000000000,   0.0000000000)
 A2 = (   0.0000000000,  30.0000000000,   0.0000000000)
 A3 = (   0.0000000000,   0.0000000000,  30.0000000000)


Analysis of symmetry for initial positions (statically):
=====================================================================
 Subroutine PRICEL returns:
 Original cell was already a primitive cell.
 

 Routine SETGRP: Setting up the symmetry group for a 
 simple cubic supercell.


 Subroutine GETGRP returns: Found  1 space group operations
 (whereof  1 operations were pure point group operations)
 out of a pool of 48 trial point group operations.


The static configuration has the point symmetry C_1 .


Analysis of symmetry for dynamics (positions and initial velocities):
=====================================================================
 Subroutine PRICEL returns:
 Original cell was already a primitive cell.
 

 Routine SETGRP: Setting up the symmetry group for a 
 simple cubic supercell.


 Subroutine GETGRP returns: Found  1 space group operations
 (whereof  1 operations were pure point group operations)
 out of a pool of 48 trial point group operations.


The dynamic configuration has the point symmetry C_1 .
 
 
 KPOINTS: Gamma-point only                        

Automatic generation of k-mesh.
Space group operators:
 irot       det(A)        alpha          n_x          n_y          n_z        tau_x        tau_y        tau_z
    1     1.000000     0.000000     1.000000     0.000000     0.000000     0.000000     0.000000     0.000000
 
 Subroutine IBZKPT returns following result:
 ===========================================
 
 Found      1 irreducible k-points:
 
 Following reciprocal coordinates:
            Coordinates               Weight
  0.000000  0.000000  0.000000      1.000000
 
 Following cartesian coordinates:
            Coordinates               Weight
  0.000000  0.000000  0.000000      1.000000
 
 
 Subroutine IBZKPT_HF returns following result:
 ==============================================
 
 Found      1 k-points in 1st BZ
 the following      1 k-points will be used (e.g. in the exchange kernel)
 Following reciprocal coordinates:   # in IRBZ
  0.000000  0.000000  0.000000    1.00000000   1 t-inv F


--------------------------------------------------------------------------------------------------------




 Dimension of arrays:
   k-points           NKPTS =      1   k-points in BZ     NKDIM =      1   number of bands    NBANDS=    196
   number of dos      NEDOS =    301   number of ions     NIONS =    114
   non local maximal  LDIM  =      4   non local SUM 2l+1 LMDIM =      8
   total plane-waves  NPLWV = ******
   max r-space proj   IRMAX =      1   max aug-charges    IRDMAX=   6071
   dimension x,y,z NGX =   168 NGY =  168 NGZ =  168
   dimension x,y,z NGXF=   336 NGYF=  336 NGZF=  336
   support grid    NGXF=   336 NGYF=  336 NGZF=  336
   ions per type =              52  60   2
 NGX,Y,Z   is equivalent  to a cutoff of   9.31,  9.31,  9.31 a.u.
 NGXF,Y,Z  is equivalent  to a cutoff of  18.62, 18.62, 18.62 a.u.


 I would recommend the setting:
   dimension x,y,z NGX =   164 NGY =  164 NGZ =  164
 SYSTEM =  Step2_PBE0_Final_Calc                   
 POSCAR =  Molecule_POSCAR_01                      

 Startparameter for this run:
   NWRITE =      2    write-flag & timer
   PREC   = normal    normal or accurate (medium, high low for compatibility)
   ISTART =      1    job   : 0-new  1-cont  2-samecut
   ICHARG =      0    charge: 1-file 2-atom 10-const
   ISPIN  =      1    spin polarized calculation?
   LNONCOLLINEAR =      F non collinear calculations
   LSORBIT =      F    spin-orbit coupling
   INIWAV =      1    electr: 0-lowe 1-rand  2-diag
   LASPH  =      T    aspherical Exc in radial PAW
   METAGGA=      F    non-selfconsistent MetaGGA calc.

 Electronic Relaxation 1
   ENCUT  =  500.0 eV  36.75 Ry    6.06 a.u.  54.70 54.70 54.70*2*pi/ulx,y,z
   ENINI  =  500.0     initial cutoff
   ENAUG  =  644.9 eV  augmentation charge cutoff
   NELM   =    100;   NELMIN=  2; NELMDL=  0     # of ELM steps 
   EDIFF  = 0.1E-05   stopping-criterion for ELM
   LREAL  =      F    real-space projection
   NLSPLINE    = F    spline interpolate recip. space projectors
   LCOMPAT=      F    compatible to vasp.4.4
   GGA_COMPAT  = T    GGA compatible to vasp.4.4-vasp.4.6
   LMAXPAW     = -100 max onsite density
   LMAXMIX     =    2 max onsite mixed and CHGCAR
   VOSKOWN=      0    Vosko Wilk Nusair interpolation
   ROPT   =    0.00000   0.00000   0.00000
 Ionic relaxation
   EDIFFG = 0.1E-04   stopping-criterion for IOM
   NSW    =      0    number of steps for IOM
   NBLOCK =      1;   KBLOCK =      1    inner block; outer block 
   IBRION =     -1    ionic relax: 0-MD 1-quasi-New 2-CG
   NFREE  =      0    steps in history (QN), initial steepest desc. (CG)
   ISIF   =      0    stress and relaxation
   IWAVPR =     10    prediction:  0-non 1-charg 2-wave 3-comb
   ISYM   =      3    0-nonsym 1-usesym 2-fastsym
   LCORR  =      T    Harris-Foulkes like correction to forces

   POTIM  = 0.5000    time-step for ionic-motion
   TEIN   =    0.0    initial temperature
   TEBEG  =    0.0;   TEEND  =   0.0 temperature during run
   SMASS  =  -3.00    Nose mass-parameter (am)
   estimated Nose-frequenzy (Omega)   =  0.10E-29 period in steps =****** mass=  -0.206E-25a.u.
   SCALEE = 1.0000    scale energy and forces
   NPACO  =    256;   APACO  = 16.0  distance and # of slots for P.C.
   PSTRESS=    0.0 pullay stress

  Mass of Ions in am
   POMASS =  12.01  1.00 28.09
  Ionic Valenz
   ZVAL   =   4.00  1.00  4.00
  Atomic Wigner-Seitz radii
   RWIGS  =  -1.00 -1.00 -1.00
  virtual crystal weights 
   VCA    =   1.00  1.00  1.00
   NELECT =     276.0000    total number of electrons
   NUPDOWN=      -1.0000    fix difference up-down

 DOS related values:
   EMIN   =  10.00;   EMAX   =-10.00  energy-range for DOS
   EFERMI =   0.00
   ISMEAR =     0;   SIGMA  =   0.05  broadening in eV -4-tet -1-fermi 0-gaus

 Electronic relaxation 2 (details)
   IALGO  =     58    algorithm
   LDIAG  =      T    sub-space diagonalisation (order eigenvalues)
   LSUBROT=      F    optimize rotation matrix (better conditioning)
   TURBO    =      0    0=normal 1=particle mesh
   IRESTART =      0    0=no restart 2=restart with 2 vectors
   NREBOOT  =      0    no. of reboots
   NMIN     =      0    reboot dimension
   EREF     =   0.00    reference energy to select bands
   IMIX   =      4    mixing-type and parameters
     AMIX     =   0.40;   BMIX     =  1.00
     AMIX_MAG =   1.60;   BMIX_MAG =  1.00
     AMIN     =   0.10
     WC   =   100.;   INIMIX=   1;  MIXPRE=   1;  MAXMIX= -45

 Intra band minimization:
   WEIMIN = 0.0000     energy-eigenvalue tresh-hold
   EBREAK =  0.13E-08  absolut break condition
   DEPER  =   0.30     relativ break condition  

   TIME   =   0.40     timestep for ELM

  volume/ion in A,a.u.               =     236.84      1598.29
  Fermi-wavevector in a.u.,A,eV,Ry     =   0.355296  0.671411  1.717532  0.126235
  Thomas-Fermi vector in A             =   1.271010
 
 Write flags
   LWAVE  =      F    write WAVECAR
   LCHARG =      F    write CHGCAR
   LVTOT  =      F    write LOCPOT, total local potential
   LVHAR  =      F    write LOCPOT, Hartree potential only
   LELF   =      F    write electronic localiz. function (ELF)
   LORBIT =      0    0 simple, 1 ext, 2 COOP (PROOUT)


 Dipole corrections
   LMONO  =      F    monopole corrections only (constant potential shift)
   LDIPOL =      F    correct potential (dipole corrections)
   IDIPOL =      0    1-x, 2-y, 3-z, 4-all directions 
   EPSILON=  1.0000000 bulk dielectric constant

 Exchange correlation treatment:
   GGA     =    PE    GGA type
   LEXCH   =     8    internal setting for exchange type
   VOSKOWN=      0    Vosko Wilk Nusair interpolation
   EXXOEP  =     0    0=HF, 1=EXX-LHF (local Hartree Fock) 2=EXX OEP
   LHFCALC =     T    Hartree Fock is set to
   LSYMGRAD=     F    symmetrize gradient (conserves proper symmetry)
   PRECFOCK=fast      Normal, Fast or Accurate (Low or Medium for compatibility)
   LRHFCALC=     F    long range Hartree Fock
   LRSCOR  =     F    long range correlation only (use DFT for short range part)
   LTHOMAS =     F    Thomas Fermi screening in HF
   LMODELHF=     F    short range full HF, long range fraction AEXX
   ENCUT4O =  -1.0   cutoff for four orbital integrals eV
   LMAXFOCK=     4    L truncation for augmentation on plane wave grid
   LMAXFOCKAE=  -1    L truncation for all-electron charge restoration on plane wave grid
   NMAXFOCKAE=   1    number of basis functions for all-electron charge restoration
   LFOCKAEDFT=     F  apply the AE augmentation even for DFT
   NKREDX  =     1    reduce k-point grid by
   NKREDY  =     1    reduce k-point grid by
   NKREDZ  =     1    reduce k-point grid by
   SHIFTRED=     F    shift reduced grid of Gamma
   HFKIDENT=     F    idential grid for each k-point
   ODDONLY =     F    use only odd q-grid points
   EVENONLY=     F    use only even q-grid points
   HFALPHA =   -1.0000 decay constant for conv. correction
   MCALPHA =    0.0000 extent of test-charge in conv. correction in multipole expansion
   AEXX    =    0.2500 exact exchange contribution
   HFSCREEN=    0.0000 screening length (either q_TF or 0.3 A-1)
   HFSCREENC=   0.0000 screening length for correlation (either q_TF or 0.3 A-1)
   HFRCUT  =    0.0000 spherical cutoff for potential kernel
   ALDAX   =    0.7500 LDA exchange part
   AGGAX   =    0.7500 GGA exchange part
   ALDAC   =    1.0000 LDA correlation
   AGGAC   =    1.0000 GGA correlation
   NBANDSGWLOW=     1    first orbital included in HF term
   ENCUTFOCK=  -1.0 apply spherical cutoff to Coloumb kernel
 Linear response parameters
   LEPSILON=     F    determine dielectric tensor
   LRPA    =     F    only Hartree local field effects (RPA)
   LNABLA  =     F    use nabla operator in PAW spheres
   LVEL    =     F    velocity operator in full k-point grid
   LINTERFAST=   F  fast interpolation
   KINTER  =     0    interpolate to denser k-point grid
   CSHIFT  =0.1000    complex shift for real part using Kramers Kronig
   OMEGAMAX=  -1.0    maximum frequency
   DEG_THRESHOLD= 0.2000000E-02 threshold for treating states as degnerate
   RTIME   =    0.100 relaxation time in fs

 Orbital magnetization related:
   ORBITALMAG=     F  switch on orbital magnetization
   LCHIMAG   =     F  perturbation theory with respect to B field
   DQ        =  0.001000  dq finite difference perturbation B field



--------------------------------------------------------------------------------------------------------


 Static calculation
 charge density and potential will be updated during run
 non-spin polarized calculation
 Conjugate gradient for all bands (Freysoldt, et al. PRB 79, 241103 (2009))
 preconditioned conjugated gradient                                        
 perform sub-space diagonalisation
    before iterative eigenvector-optimisation
 modified Broyden-mixing scheme, WC =      100.0
 initial mixing is a Kerker type mixing with AMIX =  0.4000 and BMIX =      1.0000
 Hartree-type preconditioning will be used
 using additional bands           58
 reciprocal scheme for non local part
 use partial core corrections
 no Harris-corrections to forces 
 use gradient corrections 
 use of overlap-Matrix (Vanderbilt PP)
 Gauss-broadening in eV      SIGMA  =   0.05


--------------------------------------------------------------------------------------------------------


  energy-cutoff  :      500.00
  volume of cell :    27000.00
      direct lattice vectors                 reciprocal lattice vectors
    30.000000000  0.000000000  0.000000000     0.033333333  0.000000000  0.000000000
     0.000000000 30.000000000  0.000000000     0.000000000  0.033333333  0.000000000
     0.000000000  0.000000000 30.000000000     0.000000000  0.000000000  0.033333333

  length of vectors
    30.000000000 30.000000000 30.000000000     0.033333333  0.033333333  0.033333333


 
 old parameters found on file WAVECAR:
  energy-cutoff  :      500.00
  volume of cell :    27000.00
      direct lattice vectors                 reciprocal lattice vectors
    30.000000000  0.000000000  0.000000000     0.033333333  0.000000000  0.000000000
     0.000000000 30.000000000  0.000000000     0.000000000  0.033333333  0.000000000
     0.000000000  0.000000000 30.000000000     0.000000000  0.000000000  0.033333333

  length of vectors

 
 k-points in units of 2pi/SCALE and weight: Gamma-point only                        
   0.00000000  0.00000000  0.00000000       1.000
 
 k-points in reciprocal lattice and weights: Gamma-point only                        
   0.00000000  0.00000000  0.00000000       1.000
 
 position of ions in fractional coordinates (direct lattice) 
   0.64458087  0.44299120  0.42167847
   0.68751413  0.44534463  0.44841357
   0.71771617  0.40832567  0.43079793
   0.62449880  0.47370440  0.51960003
   0.59022343  0.49309537  0.52658897
   0.54682397  0.51714007  0.53462177
   0.52115120  0.49437370  0.56631587
   0.54131083  0.47017677  0.59886387
   0.51566250  0.44897617  0.63076153
   0.47046810  0.45330503  0.62805333
   0.45017040  0.47811007  0.59463423
   0.47620440  0.49868167  0.56364683
   0.45708787  0.52535030  0.52964403
   0.41014390  0.51455093  0.52267783
   0.37129203  0.50584517  0.51714323
   0.30145597  0.48175517  0.45009147
   0.25882320  0.45597847  0.43959257
   0.34142820  0.45754827  0.43078437
   0.27898617  0.53653457  0.53378693
   0.23901760  0.51784530  0.55831573
   0.30637797  0.56559627  0.56573297
   0.30291730  0.43794363  0.54222087
   0.31838017  0.44514953  0.58986263
   0.25886963  0.41795857  0.53822517
   0.48236677  0.54733810  0.50046200
   0.46304907  0.57533253  0.47051663
   0.41602043  0.58357413  0.46414153
   0.39024153  0.61126070  0.49032670
   0.34683133  0.62077920  0.47684663
   0.32931713  0.60326877  0.43845080
   0.35472807  0.57584777  0.41261840
   0.39689483  0.56633900  0.42534537
   0.49202220  0.59996240  0.44259703
   0.47210297  0.62922610  0.41227877
   0.49930617  0.65421077  0.38495840
   0.54485773  0.65077417  0.38719997
   0.56431637  0.62124010  0.41787727
   0.53756420  0.59616293  0.44522357
   0.55654997  0.56683640  0.47647730
   0.60428847  0.56885857  0.48031543
   0.63271237  0.55704123  0.44701913
   0.67878397  0.56213557  0.45167590
   0.69621743  0.57948753  0.49104300
   0.66704740  0.59115007  0.52439033
   0.62200373  0.58585733  0.51892960
   0.52937757  0.54302010  0.50324907
   0.72047853  0.47069667  0.54274550
   0.76266527  0.47836377  0.51651617
   0.72965667  0.44615787  0.58597417
   0.66812243  0.38334940  0.52499663
   0.62975190  0.36619863  0.49823427
   0.70933337  0.35709900  0.51910303
   0.65163053  0.46176443  0.38995833
   0.63764337  0.40822563  0.41089113
   0.61523753  0.45443467  0.43983400
   0.70691193  0.47648273  0.44061323
   0.71924377  0.41501460  0.39338927
   0.75276273  0.41280143  0.44108090
   0.70393900  0.37500403  0.43358780
   0.57706597  0.46801980  0.59924520
   0.53086160  0.42935763  0.65741873
   0.44926393  0.43745327  0.65195660
   0.41390910  0.48098367  0.59318623
   0.29739367  0.51340903  0.43287617
   0.23121673  0.47296437  0.45552070
   0.25453120  0.45504683  0.40230113
   0.26247383  0.42196447  0.45079903
   0.33570310  0.42104917  0.43765320
   0.34818123  0.46466320  0.39604753
   0.37068490  0.46614637  0.45146607
   0.26684723  0.56004023  0.50725707
   0.22634640  0.54270057  0.58375887
   0.24831227  0.48839700  0.57829857
   0.21223677  0.51009993  0.53524577
   0.34162893  0.55671177  0.56612633
   0.29295020  0.56030973  0.60046753
   0.30245007  0.60134430  0.55934900
   0.32816560  0.41419963  0.52730053
   0.32653540  0.48139373  0.59395560
   0.35044803  0.42722847  0.59714627
   0.29419267  0.43410487  0.61469280
   0.23172043  0.43559830  0.52286630
   0.24823197  0.40537573  0.57303267
   0.26135897  0.38473990  0.51977183
   0.40408433  0.62463300  0.51996440
   0.32573730  0.64240067  0.49646300
   0.29504807  0.61110727  0.42792940
   0.33913963  0.56269320  0.38223437
   0.41679120  0.54445360  0.40476163
   0.43605857  0.63221097  0.41054380
   0.48275157  0.67683413  0.36150757
   0.56635640  0.66968783  0.36661357
   0.59976253  0.61962283  0.41939597
   0.62156423  0.54308060  0.41559940
   0.70183077  0.55349257  0.42570067
   0.73230710  0.58387233  0.49540050
   0.68165783  0.60411543  0.55423617
   0.60010177  0.59507527  0.54547840
   0.70934580  0.50507710  0.55369753
   0.77849840  0.44601240  0.50855120
   0.78523257  0.50217880  0.53367907
   0.75315213  0.49497537  0.48510797
   0.76547853  0.43595160  0.58542073
   0.72361917  0.46723627  0.61609157
   0.70752290  0.41718343  0.58855987
   0.65622207  0.38433630  0.56055100
   0.63685967  0.35122377  0.46633937
   0.60596627  0.39495160  0.49253773
   0.60946993  0.34103390  0.51771137
   0.73882257  0.37575460  0.50849113
   0.70151193  0.32720517  0.49798973
   0.71841113  0.34357670  0.55315413
   0.67745887  0.44367747  0.50850883
   0.31144487  0.49146660  0.50911887
 
 position of ions in cartesian coordinates  (Angst):
  19.33742600 13.28973600 12.65035400
  20.62542400 13.36033900 13.45240700
  21.53148500 12.24977000 12.92393800
  18.73496400 14.21113200 15.58800100
  17.70670300 14.79286100 15.79766900
  16.40471900 15.51420200 16.03865300
  15.63453600 14.83121100 16.98947600
  16.23932500 14.10530300 17.96591600
  15.46987500 13.46928500 18.92284600
  14.11404300 13.59915100 18.84160000
  13.50511200 14.34330200 17.83902700
  14.28613200 14.96045000 16.90940500
  13.71263600 15.76050900 15.88932100
  12.30431700 15.43652800 15.68033500
  11.13876100 15.17535500 15.51429700
   9.04367900 14.45265500 13.50274400
   7.76469600 13.67935400 13.18777700
  10.24284600 13.72644800 12.92353100
   8.36958500 16.09603700 16.01360800
   7.17052800 15.53535900 16.74947200
   9.19133900 16.96788800 16.97198900
   9.08751900 13.13830900 16.26662600
   9.55140500 13.35448600 17.69587900
   7.76608900 12.53875700 16.14675500
  14.47100300 16.42014300 15.01386000
  13.89147200 17.25997600 14.11549900
  12.48061300 17.50722400 13.92424600
  11.70724600 18.33782100 14.70980100
  10.40494000 18.62337600 14.30539900
   9.87951400 18.09806300 13.15352400
  10.64184200 17.27543300 12.37855200
  11.90684500 16.99017000 12.76036100
  14.76066600 17.99887200 13.27791100
  14.16308900 18.87678300 12.36836300
  14.97918500 19.62632300 11.54875200
  16.34573200 19.52322500 11.61599900
  16.92949100 18.63720300 12.53631800
  16.12692600 17.88488800 13.35670700
  16.69649900 17.00509200 14.29431900
  18.12865400 17.06575700 14.40946300
  18.98137100 16.71123700 13.41057400
  20.36351900 16.86406700 13.55027700
  20.88652300 17.38462600 14.73129000
  20.01142200 17.73450200 15.73171000
  18.66011200 17.57572000 15.56788800
  15.88132700 16.29060300 15.09747200
  21.61435600 14.12090000 16.28236500
  22.87995800 14.35091300 15.49548500
  21.88970000 13.38473600 17.57922500
  20.04367300 11.50048200 15.74989900
  18.89255700 10.98595900 14.94702800
  21.28000100 10.71297000 15.57309100
  19.54891600 13.85293300 11.69875000
  19.12930100 12.24676900 12.32673400
  18.45712600 13.63304000 13.19502000
  21.20735800 14.29448200 13.21839700
  21.57731300 12.45043800 11.80167800
  22.58288200 12.38404300 13.23242700
  21.11817000 11.25012100 13.00763400
  17.31197900 14.04059400 17.97735600
  15.92584800 12.88072900 19.72256200
  13.47791800 13.12359800 19.55869800
  12.41727300 14.42951000 17.79558700
   8.92181000 15.40227100 12.98628500
   6.93650200 14.18893100 13.66562100
   7.63593600 13.65140500 12.06903400
   7.87421500 12.65893400 13.52397100
  10.07109300 12.63147500 13.12959600
  10.44543700 13.93989600 11.88142600
  11.12054700 13.98439100 13.54398200
   8.00541700 16.80120700 15.21771200
   6.79039200 16.28101700 17.51276600
   7.44936800 14.65191000 17.34895700
   6.36710300 15.30299800 16.05737300
  10.24886800 16.70135300 16.98379000
   8.78850600 16.80929200 18.01402600
   9.07350200 18.04032900 16.78047000
   9.84496800 12.42598900 15.81901600
   9.79606200 14.44181200 17.81866800
  10.51344100 12.81685400 17.91438800
   8.82578000 13.02314600 18.44078400
   6.95161300 13.06794900 15.68598900
   7.44695900 12.16127200 17.19098000
   7.84076900 11.54219700 15.59315500
  12.12253000 18.73899000 15.59893200
   9.77211900 19.27202000 14.89389000
   8.85144200 18.33321800 12.83788200
  10.17418900 16.88079600 11.46703100
  12.50373600 16.33360800 12.14284900
  13.08175700 18.96632900 12.31631400
  14.48254700 20.30502400 10.84522700
  16.99069200 20.09063500 10.99840700
  17.99287600 18.58868500 12.58187900
  18.64692700 16.29241800 12.46798200
  21.05492300 16.60477700 12.77102000
  21.96921300 17.51617000 14.86201500
  20.44973500 18.12346300 16.62708500
  18.00305300 17.85225800 16.36435200
  21.28037400 15.15231300 16.61092600
  23.35495200 13.38037200 15.25653600
  23.55697700 15.06536400 16.01037200
  22.59456400 14.84926100 14.55323900
  22.96435600 13.07854800 17.56262200
  21.70857500 14.01708800 18.48274700
  21.22568700 12.51550300 17.65679600
  19.68666200 11.53008900 16.81653000
  19.10579000 10.53671300 13.99018100
  18.17898800 11.84854800 14.77613200
  18.28409800 10.23101700 15.53134100
  22.16467700 11.27263800 15.25473400
  21.04535800  9.81615500 14.93969200
  21.55233400 10.30730100 16.59462400
  20.32376600 13.31032400 15.25526500
   9.34334600 14.74399800 15.27356600
 


--------------------------------------------------------------------------------------------------------


 use seriel FFT for wavefunctions x direction half grid
 k-point  1 :   0.0000 0.0000 0.0000  plane waves:  342683

 maximum and minimum number of plane-waves per node :    342683   342683

 maximum number of plane-waves:    342683
 maximum index in each direction: 
   IXMAX=   54   IYMAX=   54   IZMAX=   54
   IXMIN=    0   IYMIN=  -54   IZMIN=  -54

 WARNING: aliasing errors must be expected set NGX to 218 to avoid them
 WARNING: aliasing errors must be expected set NGY to 218 to avoid them
 WARNING: aliasing errors must be expected set NGZ to 218 to avoid them
 aliasing errors are usually negligible using standard VASP settings
 and one can safely disregard these warnings

 serial   3D FFT for wavefunctions
 parallel 3D FFT for charge:
    minimum data exchange during FFTs selected (reduces bandwidth)


 FFT grid for exact exchange (Hartree Fock) 
  NGX =112; NGY =112; NGZ =112

 use seriel FFT for wavefunctions x direction half grid
 
 Radii for the augmentation spheres in the non-local exchange
 for species   1 augmentation radius   0.944 (default was   0.699)
       energy cutoff for augmentation   2000.0
 for species   2 augmentation radius   0.702 (default was   0.520)
       energy cutoff for augmentation   2000.0
 for species   3 augmentation radius   1.335 (default was   0.989)
       energy cutoff for augmentation   2000.0
 Maximum index for augmentation-charges in exchange          518
  SETUP_FOCK is finished

 total amount of memory used by VASP on root node  2667692. kBytes
========================================================================

   base      :      30000. kBytes
   nonl-proj :     690850. kBytes
   fftplans  :     338850. kBytes
   grid      :     799755. kBytes
   one-center:        175. kBytes
   HF        :         13. kBytes
   nonlr-proj:       1196. kBytes
   wavefun   :     806853. kBytes
 
     INWAV:  cpu time    1.5790: real time    5.8626
 Broyden mixing: mesh for mixing (old mesh)
   NGX =109   NGY =109   NGZ =109
  (NGX  =336   NGY  =336   NGZ  =336)
  gives a total of ****** points

 charge density for first step will be calculated from the start-wavefunctions


--------------------------------------------------------------------------------------------------------


 Maximum index for augmentation-charges         1429 (set IRDMAX)


--------------------------------------------------------------------------------------------------------


 initial charge from wavefunction
 FEWALD executed in parallel
    FEWALD:  cpu time    0.0082: real time    0.0082


----------------------------------------- Iteration    1(   1)  ---------------------------------------


    POTLOK:  cpu time    3.5165: real time    3.5274
    SETDIJ:  cpu time    0.7612: real time    0.7635
    TRIAL :  cpu time  459.3436: real time  461.0673
    CORREC:  cpu time  411.0715: real time  412.5968
    CHARGE:  cpu time    4.0820: real time    4.0969
    --------------------------------------------
      LOOP:  cpu time  878.8755: real time  882.1538

 eigenvalue-minimisations  :     0
 total energy-change (2. order) :-0.8358929E+03  (-0.6535670E+00)
 number of electron     275.9999937 magnetization 
 augmentation part        5.8615249 magnetization 

 Free energy of the ion-electron system (eV)
  ---------------------------------------------------
  alpha Z        PSCENC =        12.58262455
  Ewald energy   TEWEN  =     52294.69857463
  -Hartree energ DENC   =    -59239.25449786
  -exchange      EXHF   =       708.28738308
  -V(xc)+E(xc)   XCENC  =       668.82059640
  PAW double counting   =     25011.67422018   -25010.70964259
  entropy T*S    EENTRO =        -0.00000000
  eigenvalues    EBANDS =     -3729.65521586
  atomic energy  EATOM  =      8447.66309629
  ---------------------------------------------------
  free energy    TOTEN  =      -835.89286117 eV

  energy without entropy =     -835.89286117  energy(sigma->0) =     -835.89286117
  exchange ACFDT corr.  =        -0.00000000  see jH, gK, PRB 81, 115126


--------------------------------------------------------------------------------------------------------




----------------------------------------- Iteration    1(   2)  ---------------------------------------


    POTLOK:  cpu time    3.8859: real time    3.9000
    SETDIJ:  cpu time    0.7637: real time    0.7663
    TRIAL :  cpu time  467.8446: real time  469.6803
    CORREC:  cpu time  407.8909: real time  409.5413
    CHARGE:  cpu time    4.1290: real time    4.1437
    --------------------------------------------
      LOOP:  cpu time  884.5156: real time  888.0460

 eigenvalue-minimisations  :     0
 total energy-change (2. order) :-0.6549553E+00  (-0.1025669E+00)
 number of electron     275.9999937 magnetization 
 augmentation part        5.8543468 magnetization 

 Free energy of the ion-electron system (eV)
  ---------------------------------------------------
  alpha Z        PSCENC =        12.58262455
  Ewald energy   TEWEN  =     52294.69857463
  -Hartree energ DENC   =    -59238.32254223
  -exchange      EXHF   =       708.73416374
  -V(xc)+E(xc)   XCENC  =       668.44023613
  PAW double counting   =     27004.63859695   -27003.09757891
  entropy T*S    EENTRO =        -0.00000000
  eigenvalues    EBANDS =     -3731.88498760
  atomic energy  EATOM  =      8447.66309629
  ---------------------------------------------------
  free energy    TOTEN  =      -836.54781646 eV

  energy without entropy =     -836.54781646  energy(sigma->0) =     -836.54781646
  exchange ACFDT corr.  =         0.00000000  see jH, gK, PRB 81, 115126


--------------------------------------------------------------------------------------------------------




----------------------------------------- Iteration    1(   3)  ---------------------------------------


    POTLOK:  cpu time    3.8719: real time    3.8879
    SETDIJ:  cpu time    0.7629: real time    0.7656
    TRIAL :  cpu time  467.1434: real time  468.9513
    CORREC:  cpu time  404.7019: real time  406.1889
    CHARGE:  cpu time    4.2208: real time    4.2362
    --------------------------------------------
      LOOP:  cpu time  880.7021: real time  884.0474

 eigenvalue-minimisations  :     0
 total energy-change (2. order) :-0.1026855E+00  (-0.2741876E-01)
 number of electron     275.9999937 magnetization 
 augmentation part        5.8553178 magnetization 

 Free energy of the ion-electron system (eV)
  ---------------------------------------------------
  alpha Z        PSCENC =        12.58262455
  Ewald energy   TEWEN  =     52294.69857463
  -Hartree energ DENC   =    -59234.70502207
  -exchange      EXHF   =       708.95479523
  -V(xc)+E(xc)   XCENC  =       668.45383169
  PAW double counting   =     27770.28088002   -27768.60932707
  entropy T*S    EENTRO =        -0.00000000
  eigenvalues    EBANDS =     -3735.96995519
  atomic energy  EATOM  =      8447.66309629
  ---------------------------------------------------
  free energy    TOTEN  =      -836.65050193 eV

  energy without entropy =     -836.65050193  energy(sigma->0) =     -836.65050193
  exchange ACFDT corr.  =         0.00000000  see jH, gK, PRB 81, 115126


--------------------------------------------------------------------------------------------------------




----------------------------------------- Iteration    1(   4)  ---------------------------------------


    POTLOK:  cpu time    3.9270: real time    3.9417
    SETDIJ:  cpu time    0.7704: real time    0.7730
    TRIAL :  cpu time  441.1966: real time  442.7842
    CORREC:  cpu time  356.6559: real time  357.9018
    CHARGE:  cpu time    3.7111: real time    3.7239
    --------------------------------------------
      LOOP:  cpu time  806.2621: real time  809.1272

 eigenvalue-minimisations  :     0
 total energy-change (2. order) :-0.2743374E-01  (-0.9308492E-02)
 number of electron     275.9999937 magnetization 
 augmentation part        5.8562755 magnetization 

 Free energy of the ion-electron system (eV)
  ---------------------------------------------------
  alpha Z        PSCENC =        12.58262455
  Ewald energy   TEWEN  =     52294.69857463
  -Hartree energ DENC   =    -59243.91644314
  -exchange      EXHF   =       709.34198703
  -V(xc)+E(xc)   XCENC  =       668.73964462
  PAW double counting   =     28094.96647448   -28093.27633241
  entropy T*S    EENTRO =        -0.00000000
  eigenvalues    EBANDS =     -3727.47756171
  atomic energy  EATOM  =      8447.66309629
  ---------------------------------------------------
  free energy    TOTEN  =      -836.67793567 eV

  energy without entropy =     -836.67793567  energy(sigma->0) =     -836.67793567
  exchange ACFDT corr.  =        -0.00000000  see jH, gK, PRB 81, 115126


--------------------------------------------------------------------------------------------------------




----------------------------------------- Iteration    1(   5)  ---------------------------------------


    POTLOK:  cpu time    3.5773: real time    3.5903
    SETDIJ:  cpu time    0.7683: real time    0.7707
    TRIAL :  cpu time  378.5199: real time  379.7636
    CORREC:  cpu time  325.0789: real time  326.0705
    CHARGE:  cpu time    3.3049: real time    3.3148
    --------------------------------------------
      LOOP:  cpu time  711.2502: real time  713.5122

 eigenvalue-minimisations  :     0
 total energy-change (2. order) :-0.9314723E-02  (-0.3712469E-02)
 number of electron     275.9999937 magnetization 
 augmentation part        5.8565640 magnetization 

 Free energy of the ion-electron system (eV)
  ---------------------------------------------------
  alpha Z        PSCENC =        12.58262455
  Ewald energy   TEWEN  =     52294.69857463
  -Hartree energ DENC   =    -59244.25169582
  -exchange      EXHF   =       709.40660686
  -V(xc)+E(xc)   XCENC  =       668.77335835
  PAW double counting   =     28197.65255608   -28195.95556714
  entropy T*S    EENTRO =        -0.00000000
  eigenvalues    EBANDS =     -3727.25680419
  atomic energy  EATOM  =      8447.66309629
  ---------------------------------------------------
  free energy    TOTEN  =      -836.68725040 eV

  energy without entropy =     -836.68725040  energy(sigma->0) =     -836.68725040
  exchange ACFDT corr.  =        -0.00000000  see jH, gK, PRB 81, 115126


--------------------------------------------------------------------------------------------------------




----------------------------------------- Iteration    1(   6)  ---------------------------------------


    POTLOK:  cpu time    3.1683: real time    3.1777
    SETDIJ:  cpu time    0.7620: real time    0.7641
    TRIAL :  cpu time  372.9233: real time  374.0758
    CORREC:  cpu time  324.6773: real time  325.6414
    CHARGE:  cpu time    3.2677: real time    3.2770
    --------------------------------------------
      LOOP:  cpu time  704.7999: real time  706.9385

 eigenvalue-minimisations  :     0
 total energy-change (2. order) :-0.3714124E-02  (-0.1561213E-02)
 number of electron     275.9999937 magnetization 
 augmentation part        5.8575373 magnetization 

 Free energy of the ion-electron system (eV)
  ---------------------------------------------------
  alpha Z        PSCENC =        12.58262455
  Ewald energy   TEWEN  =     52294.69857463
  -Hartree energ DENC   =    -59242.09606345
  -exchange      EXHF   =       709.38080200
  -V(xc)+E(xc)   XCENC  =       668.74007181
  PAW double counting   =     28198.39706338   -28196.70048916
  entropy T*S    EENTRO =        -0.00000000
  eigenvalues    EBANDS =     -3729.35664457
  atomic energy  EATOM  =      8447.66309629
  ---------------------------------------------------
  free energy    TOTEN  =      -836.69096452 eV

  energy without entropy =     -836.69096452  energy(sigma->0) =     -836.69096452
  exchange ACFDT corr.  =        -0.00000000  see jH, gK, PRB 81, 115126


--------------------------------------------------------------------------------------------------------




----------------------------------------- Iteration    1(   7)  ---------------------------------------


    POTLOK:  cpu time    3.2019: real time    3.2114
    SETDIJ:  cpu time    0.7612: real time    0.7633
    TRIAL :  cpu time  373.2174: real time  374.3516
    CORREC:  cpu time  324.8778: real time  325.7690
    CHARGE:  cpu time    3.2742: real time    3.2836
    --------------------------------------------
      LOOP:  cpu time  705.3336: real time  707.3812

 eigenvalue-minimisations  :     0
 total energy-change (2. order) :-0.1562368E-02  (-0.5274280E-03)
 number of electron     275.9999937 magnetization 
 augmentation part        5.8580440 magnetization 

 Free energy of the ion-electron system (eV)
  ---------------------------------------------------
  alpha Z        PSCENC =        12.58262455
  Ewald energy   TEWEN  =     52294.69857463
  -Hartree energ DENC   =    -59243.69916205
  -exchange      EXHF   =       709.42918100
  -V(xc)+E(xc)   XCENC  =       668.78058072
  PAW double counting   =     28164.30265025   -28162.61644607
  entropy T*S    EENTRO =        -0.00000000
  eigenvalues    EBANDS =     -3727.83362622
  atomic energy  EATOM  =      8447.66309629
  ---------------------------------------------------
  free energy    TOTEN  =      -836.69252689 eV

  energy without entropy =     -836.69252689  energy(sigma->0) =     -836.69252689
  exchange ACFDT corr.  =        -0.00000000  see jH, gK, PRB 81, 115126


--------------------------------------------------------------------------------------------------------




----------------------------------------- Iteration    1(   8)  ---------------------------------------


    POTLOK:  cpu time    3.1601: real time    3.1683
    SETDIJ:  cpu time    0.7610: real time    0.7628
    TRIAL :  cpu time  373.7621: real time  374.8301
    CORREC:  cpu time  324.9420: real time  325.8315
    CHARGE:  cpu time    3.2726: real time    3.2809
    --------------------------------------------
      LOOP:  cpu time  705.8988: real time  707.8758

 eigenvalue-minimisations  :     0
 total energy-change (2. order) :-0.5276540E-03  (-0.1897419E-03)
 number of electron     275.9999937 magnetization 
 augmentation part        5.8581289 magnetization 

 Free energy of the ion-electron system (eV)
  ---------------------------------------------------
  alpha Z        PSCENC =        12.58262455
  Ewald energy   TEWEN  =     52294.69857463
  -Hartree energ DENC   =    -59243.97597930
  -exchange      EXHF   =       709.43503552
  -V(xc)+E(xc)   XCENC  =       668.78541011
  PAW double counting   =     28136.11843734   -28134.43730439
  entropy T*S    EENTRO =        -0.00000000
  eigenvalues    EBANDS =     -3727.56294929
  atomic energy  EATOM  =      8447.66309629
  ---------------------------------------------------
  free energy    TOTEN  =      -836.69305454 eV

  energy without entropy =     -836.69305454  energy(sigma->0) =     -836.69305454
  exchange ACFDT corr.  =        -0.00000000  see jH, gK, PRB 81, 115126


--------------------------------------------------------------------------------------------------------




----------------------------------------- Iteration    1(   9)  ---------------------------------------


    POTLOK:  cpu time    3.1573: real time    3.1653
    SETDIJ:  cpu time    0.7606: real time    0.7623
    TRIAL :  cpu time  373.0712: real time  374.1291
    CORREC:  cpu time  324.5730: real time  325.4507
    CHARGE:  cpu time    3.3116: real time    3.3205
    --------------------------------------------
      LOOP:  cpu time  704.8748: real time  706.8300

 eigenvalue-minimisations  :     0
 total energy-change (2. order) :-0.1897547E-03  (-0.5909457E-04)
 number of electron     275.9999937 magnetization 
 augmentation part        5.8582479 magnetization 

 Free energy of the ion-electron system (eV)
  ---------------------------------------------------
  alpha Z        PSCENC =        12.58262455
  Ewald energy   TEWEN  =     52294.69857463
  -Hartree energ DENC   =    -59243.59763358
  -exchange      EXHF   =       709.42567083
  -V(xc)+E(xc)   XCENC  =       668.77667658
  PAW double counting   =     28120.44542358   -28118.76563402
  entropy T*S    EENTRO =        -0.00000000
  eigenvalues    EBANDS =     -3727.92204315
  atomic energy  EATOM  =      8447.66309629
  ---------------------------------------------------
  free energy    TOTEN  =      -836.69324430 eV

  energy without entropy =     -836.69324430  energy(sigma->0) =     -836.69324430
  exchange ACFDT corr.  =         0.00000000  see jH, gK, PRB 81, 115126


--------------------------------------------------------------------------------------------------------




----------------------------------------- Iteration    1(  10)  ---------------------------------------


    POTLOK:  cpu time    3.1544: real time    3.1626
    SETDIJ:  cpu time    0.7610: real time    0.7628
    TRIAL :  cpu time  375.1545: real time  376.1589
    CORREC:  cpu time  325.2182: real time  326.0861
    CHARGE:  cpu time    3.2978: real time    3.3059
    --------------------------------------------
      LOOP:  cpu time  707.5870: real time  709.4779

 eigenvalue-minimisations  :     0
 total energy-change (2. order) :-0.5901226E-04  (-0.2003952E-04)
 number of electron     275.9999937 magnetization 
 augmentation part        5.8583286 magnetization 

 Free energy of the ion-electron system (eV)
  ---------------------------------------------------
  alpha Z        PSCENC =        12.58262455
  Ewald energy   TEWEN  =     52294.69857463
  -Hartree energ DENC   =    -59243.75963570
  -exchange      EXHF   =       709.42900728
  -V(xc)+E(xc)   XCENC  =       668.77948108
  PAW double counting   =     28115.86635253   -28114.18721941
  entropy T*S    EENTRO =        -0.00000000
  eigenvalues    EBANDS =     -3727.76558455
  atomic energy  EATOM  =      8447.66309629
  ---------------------------------------------------
  free energy    TOTEN  =      -836.69330331 eV

  energy without entropy =     -836.69330331  energy(sigma->0) =     -836.69330331
  exchange ACFDT corr.  =         0.00000000  see jH, gK, PRB 81, 115126


--------------------------------------------------------------------------------------------------------




----------------------------------------- Iteration    1(  11)  ---------------------------------------


    POTLOK:  cpu time    3.1565: real time    3.1644
    SETDIJ:  cpu time    0.7582: real time    0.7598
    TRIAL :  cpu time  371.7854: real time  372.7734
    CORREC:  cpu time  326.7461: real time  327.5836
    CHARGE:  cpu time    3.2642: real time    3.2710
    --------------------------------------------
      LOOP:  cpu time  705.7115: real time  707.5547

 eigenvalue-minimisations  :     0
 total energy-change (2. order) :-0.1990301E-04  (-0.8585361E-05)
 number of electron     275.9999937 magnetization 
 augmentation part        5.8583332 magnetization 

 Free energy of the ion-electron system (eV)
  ---------------------------------------------------
  alpha Z        PSCENC =        12.58262455
  Ewald energy   TEWEN  =     52294.69857463
  -Hartree energ DENC   =    -59243.83870869
  -exchange      EXHF   =       709.43030785
  -V(xc)+E(xc)   XCENC  =       668.78049882
  PAW double counting   =     28115.57617007   -28113.89704385
  entropy T*S    EENTRO =        -0.00000000
  eigenvalues    EBANDS =     -3727.68884288
  atomic energy  EATOM  =      8447.66309629
  ---------------------------------------------------
  free energy    TOTEN  =      -836.69332321 eV

  energy without entropy =     -836.69332321  energy(sigma->0) =     -836.69332321
  exchange ACFDT corr.  =        -0.00000000  see jH, gK, PRB 81, 115126


--------------------------------------------------------------------------------------------------------




----------------------------------------- Iteration    1(  12)  ---------------------------------------


    POTLOK:  cpu time    3.1342: real time    3.1404
    SETDIJ:  cpu time    0.7675: real time    0.7692
    TRIAL :  cpu time  370.5130: real time  371.3866
    CORREC:  cpu time  327.6098: real time  328.3761
    CHARGE:  cpu time    3.2653: real time    3.2727
    --------------------------------------------
      LOOP:  cpu time  705.2907: real time  706.9472

 eigenvalue-minimisations  :     0
 total energy-change (2. order) :-0.8428207E-05  (-0.4061282E-05)
 number of electron     275.9999937 magnetization 
 augmentation part        5.8583150 magnetization 

 Free energy of the ion-electron system (eV)
  ---------------------------------------------------
  alpha Z        PSCENC =        12.58262455
  Ewald energy   TEWEN  =     52294.69857463
  -Hartree energ DENC   =    -59243.80139821
  -exchange      EXHF   =       709.42957500
  -V(xc)+E(xc)   XCENC  =       668.77965600
  PAW double counting   =     28116.39267186   -28114.71319518
  entropy T*S    EENTRO =        -0.00000000
  eigenvalues    EBANDS =     -3727.72493658
  atomic energy  EATOM  =      8447.66309629
  ---------------------------------------------------
  free energy    TOTEN  =      -836.69333164 eV

  energy without entropy =     -836.69333164  energy(sigma->0) =     -836.69333164
  exchange ACFDT corr.  =        -0.00000000  see jH, gK, PRB 81, 115126


--------------------------------------------------------------------------------------------------------




----------------------------------------- Iteration    1(  13)  ---------------------------------------


    POTLOK:  cpu time    3.1545: real time    3.1607
    SETDIJ:  cpu time    0.7607: real time    0.7621
    TRIAL :  cpu time  370.5096: real time  371.3733
    CORREC:  cpu time  327.6004: real time  328.3610
    CHARGE:  cpu time    3.3257: real time    3.3332
    --------------------------------------------
      LOOP:  cpu time  705.3520: real time  706.9926

 eigenvalue-minimisations  :     0
 total energy-change (2. order) :-0.3819694E-05  (-0.1870621E-05)
 number of electron     275.9999937 magnetization 
 augmentation part        5.8583029 magnetization 

 Free energy of the ion-electron system (eV)
  ---------------------------------------------------
  alpha Z        PSCENC =        12.58262455
  Ewald energy   TEWEN  =     52294.69857463
  -Hartree energ DENC   =    -59243.78680937
  -exchange      EXHF   =       709.42963930
  -V(xc)+E(xc)   XCENC  =       668.77956248
  PAW double counting   =     28117.13995132   -28115.46017636
  entropy T*S    EENTRO =        -0.00000000
  eigenvalues    EBANDS =     -3727.73979830
  atomic energy  EATOM  =      8447.66309629
  ---------------------------------------------------
  free energy    TOTEN  =      -836.69333546 eV

  energy without entropy =     -836.69333546  energy(sigma->0) =     -836.69333546
  exchange ACFDT corr.  =        -0.00000000  see jH, gK, PRB 81, 115126


--------------------------------------------------------------------------------------------------------




----------------------------------------- Iteration    1(  14)  ---------------------------------------


    POTLOK:  cpu time    3.1592: real time    3.1654
    SETDIJ:  cpu time    0.7611: real time    0.7623
    TRIAL :  cpu time  370.8777: real time  371.7377
    CORREC:  cpu time  327.3507: real time  328.1031
    CHARGE:  cpu time    3.2831: real time    3.2899
    --------------------------------------------
      LOOP:  cpu time  705.4329: real time  707.0606

 eigenvalue-minimisations  :     0
 total energy-change (2. order) :-0.1620761E-05  (-0.9217697E-06)
 number of electron     275.9999937 magnetization 
 augmentation part        5.8582890 magnetization 

 Free energy of the ion-electron system (eV)
  ---------------------------------------------------
  alpha Z        PSCENC =        12.58262455
  Ewald energy   TEWEN  =     52294.69857463
  -Hartree energ DENC   =    -59243.79662870
  -exchange      EXHF   =       709.42998152
  -V(xc)+E(xc)   XCENC  =       668.77979088
  PAW double counting   =     28117.33434100   -28115.65443098
  entropy T*S    EENTRO =        -0.00000000
  eigenvalues    EBANDS =     -3727.73068627
  atomic energy  EATOM  =      8447.66309629
  ---------------------------------------------------
  free energy    TOTEN  =      -836.69333708 eV

  energy without entropy =     -836.69333708  energy(sigma->0) =     -836.69333708
  exchange ACFDT corr.  =         0.00000000  see jH, gK, PRB 81, 115126


--------------------------------------------------------------------------------------------------------




----------------------------------------- Iteration    1(  15)  ---------------------------------------


    POTLOK:  cpu time    3.2002: real time    3.2069
    SETDIJ:  cpu time    0.7606: real time    0.7620
    TRIAL :  cpu time  370.5301: real time  371.3926
    CORREC:  cpu time  327.9682: real time  328.7268
    CHARGE:  cpu time    3.2994: real time    3.3059
    --------------------------------------------
      LOOP:  cpu time  705.7597: real time  707.3965

 eigenvalue-minimisations  :     0
 total energy-change (2. order) :-0.7324015E-06  (-0.5461564E-06)
 number of electron     275.9999937 magnetization 
 augmentation part        5.8582747 magnetization 

 Free energy of the ion-electron system (eV)
  ---------------------------------------------------
  alpha Z        PSCENC =        12.58262455
  Ewald energy   TEWEN  =     52294.69857463
  -Hartree energ DENC   =    -59243.79558578
  -exchange      EXHF   =       709.43001211
  -V(xc)+E(xc)   XCENC  =       668.77976567
  PAW double counting   =     28117.15333467   -28115.47337423
  entropy T*S    EENTRO =        -0.00000000
  eigenvalues    EBANDS =     -3727.73178571
  atomic energy  EATOM  =      8447.66309629
  ---------------------------------------------------
  free energy    TOTEN  =      -836.69333781 eV

  energy without entropy =     -836.69333781  energy(sigma->0) =     -836.69333781
  exchange ACFDT corr.  =         0.00000000  see jH, gK, PRB 81, 115126


--------------------------------------------------------------------------------------------------------


  average scaling for gradient   1.3410


 average (electrostatic) potential at core
  the test charge radii are     0.6991  0.5201  0.9892
  (the norm of the test charge is              1.0000)
       1 -53.6862       2 -53.6649       3 -53.8510       4 -53.4030       5 -54.2225
       6 -55.0803       7 -54.6370       8 -54.2753       9 -54.3871      10 -54.3123
      11 -54.2428      12 -54.6344      13 -55.0676      14 -54.3118      15 -53.5646
      16 -53.4941      17 -53.7795      18 -53.6050      19 -53.6433      20 -53.7933
      21 -53.5926      22 -53.6190      23 -53.7936      24 -53.7980      25 -54.8571
      26 -54.6899      27 -54.6288      28 -54.3472      29 -54.3715      30 -54.3539
      31 -54.3429      32 -54.2635      33 -54.5880      34 -54.2110      35 -54.3021
      36 -54.3155      37 -54.2329      38 -54.6000      39 -54.6762      40 -54.5581
      41 -54.3168      42 -54.3590      43 -54.3445      44 -54.2568      45 -54.2589
      46 -54.8289      47 -53.5625      48 -53.8740      49 -53.7271      50 -53.5434
      51 -53.6334      52 -53.7860      53 -36.4832      54 -36.5429      55 -36.5975
      56 -36.6780      57 -36.3290      58 -36.7929      59 -36.9247      60 -37.2835
      61 -37.3576      62 -37.3664      63 -37.1441      64 -36.7687      65 -36.9530
      66 -36.5354      67 -36.8543      68 -36.4557      69 -36.8130      70 -36.3985
      71 -36.6113      72 -36.4350      73 -36.7034      74 -36.8892      75 -36.4968
      76 -36.3580      77 -36.6457      78 -36.4400      79 -36.5579      80 -36.5127
      81 -36.8611      82 -36.9219      83 -36.3382      84 -36.3339      85 -37.5465
      86 -37.3760      87 -37.3267      88 -37.3570      89 -37.2487      90 -37.2421
      91 -37.1612      92 -37.5257      93 -37.3999      94 -37.2932      95 -37.5100
      96 -37.3311      97 -37.4121      98 -37.3773      99 -36.4182     100 -36.8669
     101 -36.7279     102 -36.7533     103 -36.5933     104 -36.5531     105 -36.7038
     106 -36.5282     107 -36.8569     108 -36.2434     109 -36.2617     110 -36.8649
     111 -36.6299     112 -36.3801     113 -88.2419     114 -88.3317
 
 
 
 E-fermi :  -4.5354     XC(G=0):  -0.3392     alpha+bet : -0.2721


 k-point     1 :       0.0000    0.0000    0.0000
  band No.  band energies     occupation 
      1     -25.8864      2.00000
      2     -24.9605      2.00000
      3     -24.5407      2.00000
      4     -24.1282      2.00000
      5     -23.8631      2.00000
      6     -23.2751      2.00000
      7     -22.5326      2.00000
      8     -22.3932      2.00000
      9     -22.3329      2.00000
     10     -22.2813      2.00000
     11     -21.7525      2.00000
     12     -21.7466      2.00000
     13     -21.6272      2.00000
     14     -21.5918      2.00000
     15     -21.3846      2.00000
     16     -21.1149      2.00000
     17     -21.0370      2.00000
     18     -20.9420      2.00000
     19     -20.8285      2.00000
     20     -20.6680      2.00000
     21     -20.6385      2.00000
     22     -20.3131      2.00000
     23     -19.2471      2.00000
     24     -19.0332      2.00000
     25     -18.9680      2.00000
     26     -18.9416      2.00000
     27     -18.9356      2.00000
     28     -18.7878      2.00000
     29     -18.7131      2.00000
     30     -18.5734      2.00000
     31     -17.9532      2.00000
     32     -17.6525      2.00000
     33     -17.3467      2.00000
     34     -17.1193      2.00000
     35     -17.0532      2.00000
     36     -16.9952      2.00000
     37     -16.7498      2.00000
     38     -16.6943      2.00000
     39     -16.6305      2.00000
     40     -15.9660      2.00000
     41     -15.7992      2.00000
     42     -15.6895      2.00000
     43     -15.6642      2.00000
     44     -15.5965      2.00000
     45     -15.5761      2.00000
     46     -15.3379      2.00000
     47     -14.9171      2.00000
     48     -14.7911      2.00000
     49     -14.3291      2.00000
     50     -14.1544      2.00000
     51     -14.1049      2.00000
     52     -13.8745      2.00000
     53     -13.7136      2.00000
     54     -13.3202      2.00000
     55     -13.2281      2.00000
     56     -13.0000      2.00000
     57     -12.9906      2.00000
     58     -12.9642      2.00000
     59     -12.8892      2.00000
     60     -12.7999      2.00000
     61     -12.6876      2.00000
     62     -12.5815      2.00000
     63     -12.4713      2.00000
     64     -12.4120      2.00000
     65     -12.3727      2.00000
     66     -12.3157      2.00000
     67     -12.2392      2.00000
     68     -12.2194      2.00000
     69     -12.1421      2.00000
     70     -12.1058      2.00000
     71     -12.0382      2.00000
     72     -11.9685      2.00000
     73     -11.9023      2.00000
     74     -11.8228      2.00000
     75     -11.7437      2.00000
     76     -11.6662      2.00000
     77     -11.6412      2.00000
     78     -11.5989      2.00000
     79     -11.5362      2.00000
     80     -11.5074      2.00000
     81     -11.3232      2.00000
     82     -11.1304      2.00000
     83     -11.0770      2.00000
     84     -10.9811      2.00000
     85     -10.9581      2.00000
     86     -10.9339      2.00000
     87     -10.8773      2.00000
     88     -10.8090      2.00000
     89     -10.6927      2.00000
     90     -10.6750      2.00000
     91     -10.5779      2.00000
     92     -10.4960      2.00000
     93     -10.4900      2.00000
     94     -10.4610      2.00000
     95     -10.3978      2.00000
     96     -10.3095      2.00000
     97     -10.1090      2.00000
     98     -10.0315      2.00000
     99      -9.9696      2.00000
    100      -9.8862      2.00000
    101      -9.8022      2.00000
    102      -9.6953      2.00000
    103      -9.6330      2.00000
    104      -9.5566      2.00000
    105      -9.5121      2.00000
    106      -9.4776      2.00000
    107      -9.4717      2.00000
    108      -9.4236      2.00000
    109      -9.3587      2.00000
    110      -9.2268      2.00000
    111      -9.1815      2.00000
    112      -9.1174      2.00000
    113      -9.0438      2.00000
    114      -9.0202      2.00000
    115      -9.0124      2.00000
    116      -8.9678      2.00000
    117      -8.8939      2.00000
    118      -8.8399      2.00000
    119      -8.7427      2.00000
    120      -8.6210      2.00000
    121      -8.5547      2.00000
    122      -8.4791      2.00000
    123      -8.2506      2.00000
    124      -7.9123      2.00000
    125      -7.8076      2.00000
    126      -7.6114      2.00000
    127      -7.4008      2.00000
    128      -7.3684      2.00000
    129      -7.2397      2.00000
    130      -7.1732      2.00000
    131      -7.0782      2.00000
    132      -7.0038      2.00000
    133      -6.9922      2.00000
    134      -6.8570      2.00000
    135      -6.6140      2.00000
    136      -6.5373      2.00000
    137      -6.4701      2.00000
    138      -4.8235      2.00000
    139      -2.6415      0.00000
    140      -0.7388      0.00000
    141      -0.3857      0.00000
    142      -0.3803      0.00000
    143      -0.2514      0.00000
    144      -0.1629      0.00000
    145      -0.1340      0.00000
    146      -0.0679      0.00000
    147      -0.0140      0.00000
    148       0.0623      0.00000
    149       0.1091      0.00000
    150       0.1407      0.00000
    151       0.1625      0.00000
    152       0.1995      0.00000
    153       0.2184      0.00000
    154       0.2418      0.00000
    155       0.2797      0.00000
    156       0.3458      0.00000
    157       0.3632      0.00000
    158       0.3679      0.00000
    159       0.3919      0.00000
    160       0.3975      0.00000
    161       0.4042      0.00000
    162       0.4279      0.00000
    163       0.4407      0.00000
    164       0.4465      0.00000
    165       0.4636      0.00000
    166       0.4837      0.00000
    167       0.5269      0.00000
    168       0.5578      0.00000
    169       0.5627      0.00000
    170       0.5685      0.00000
    171       0.5782      0.00000
    172       0.5763      0.00000
    173       0.6017      0.00000
    174       0.6145      0.00000
    175       0.6207      0.00000
    176       0.6290      0.00000
    177       0.6699      0.00000
    178       0.6842      0.00000
    179       0.7076      0.00000
    180       0.7114      0.00000
    181       0.7585      0.00000
    182       0.7820      0.00000
    183       0.7861      0.00000
    184       0.8326      0.00000
    185       0.8452      0.00000
    186       0.8640      0.00000
    187       0.8775      0.00000
    188       0.9033      0.00000
    189       0.9163      0.00000
    190       0.9789      0.00000
    191       0.9935      0.00000
    192       1.0038      0.00000
    193       1.0521      0.00000
    194       1.1127      0.00000
    195       1.1745      0.00000
    196       1.3614      0.00000


--------------------------------------------------------------------------------------------------------


 soft charge-density along one line, spin component           1
         0         1         2         3         4         5         6         7         8         9
 total charge-density along one line
 
 pseudopotential strength for first ion, spin component:           1
  9.902  13.165  -0.000  -0.001   0.003   0.001   0.002  -0.006
 13.165  17.502  -0.000  -0.001   0.003   0.001   0.002  -0.008
 -0.000  -0.000  -4.140  -0.001   0.000   8.077   0.001  -0.001
 -0.001  -0.001  -0.001  -4.140   0.002   0.001   8.077  -0.004
  0.003   0.003   0.000   0.002  -4.141  -0.001  -0.004   8.079
  0.001   0.001   8.077   0.001  -0.001 -17.870  -0.002   0.001
  0.002   0.002   0.001   8.077  -0.004  -0.002 -17.869   0.007
 -0.006  -0.008  -0.001  -0.004   8.079   0.001   0.007 -17.872
 total augmentation occupancy for first ion, spin component:           1
  8.474  -3.801  -0.037   0.002  -0.002  -0.006   0.004   0.010
 -3.801   1.726   0.024   0.008  -0.017   0.004  -0.003  -0.009
 -0.037   0.024   1.600   0.019  -0.016   0.135   0.003   0.001
  0.002   0.008   0.019   1.581  -0.050   0.003   0.138  -0.003
 -0.002  -0.017  -0.016  -0.050   1.635   0.001  -0.003   0.146
 -0.006   0.004   0.135   0.003   0.001   0.012   0.000   0.000
  0.004  -0.003   0.003   0.138  -0.003   0.000   0.012   0.000
  0.010  -0.009   0.001  -0.003   0.146   0.000   0.000   0.014


------------------------ aborting loop because EDIFF is reached ----------------------------------------


    FORLOC:  cpu time    2.5510: real time    2.5556
    FORHF :  cpu time  302.5013: real time  303.2218
    FORNL :  cpu time   61.9885: real time   62.1399
    FORCOR:  cpu time    4.8030: real time    4.8129
    OFIELD:  cpu time    0.0079: real time    0.0079

  Hirshfeld charges:
            ion         q(e)     
   ------------------------------
      1     C          -0.111
      2     C          -0.113
      3     C          -0.107
      4     C          -0.139
      5     C          -0.025
      6     C           0.017
      7     C          -0.004
      8     C          -0.042
      9     C          -0.043
     10     C          -0.047
     11     C          -0.044
     12     C          -0.004
     13     C           0.012
     14     C          -0.020
     15     C          -0.122
     16     C          -0.123
     17     C          -0.111
     18     C          -0.116
     19     C          -0.115
     20     C          -0.109
     21     C          -0.116
     22     C          -0.109
     23     C          -0.108
     24     C          -0.109
     25     C          -0.003
     26     C           0.008
     27     C           0.009
     28     C          -0.035
     29     C          -0.037
     30     C          -0.044
     31     C          -0.040
     32     C          -0.036
     33     C          -0.002
     34     C          -0.046
     35     C          -0.049
     36     C          -0.047
     37     C          -0.045
     38     C          -0.004
     39     C           0.010
     40     C           0.004
     41     C          -0.032
     42     C          -0.039
     43     C          -0.041
     44     C          -0.045
     45     C          -0.039
     46     C          -0.004
     47     C          -0.117
     48     C          -0.112
     49     C          -0.112
     50     C          -0.111
     51     C          -0.111
     52     C          -0.109
     53     H           0.033
     54     H           0.036
     55     H           0.032
     56     H           0.033
     57     H           0.028
     58     H           0.037
     59     H           0.039
     60     H           0.044
     61     H           0.053
     62     H           0.046
     63     H           0.042
     64     H           0.029
     65     H           0.036
     66     H           0.037
     67     H           0.035
     68     H           0.035
     69     H           0.039
     70     H           0.024
     71     H           0.036
     72     H           0.034
     73     H           0.035
     74     H           0.036
     75     H           0.023
     76     H           0.031
     77     H           0.033
     78     H           0.037
     79     H           0.030
     80     H           0.038
     81     H           0.037
     82     H           0.035
     83     H           0.032
     84     H           0.032
     85     H           0.052
     86     H           0.047
     87     H           0.049
     88     H           0.053
     89     H           0.048
     90     H           0.040
     91     H           0.046
     92     H           0.048
     93     H           0.039
     94     H           0.050
     95     H           0.048
     96     H           0.051
     97     H           0.048
     98     H           0.046
     99     H           0.035
    100     H           0.036
    101     H           0.038
    102     H           0.029
    103     H           0.036
    104     H           0.038
    105     H           0.030
    106     H           0.038
    107     H           0.036
    108     H           0.030
    109     H           0.033
    110     H           0.035
    111     H           0.040
    112     H           0.032
    113     Si          0.374
    114     Si          0.382

  Atomic reference data used in the T-S method for vdW correction:
            C6at              R0at           ALPHAat      REFSTATE
            (au)              (au)            (au)                
   ---------------------------------------------------------------
   C          46.600          3.590         12.000         0
   H           6.500          3.099          4.500         0
   Si        305.000          4.195         37.000         0

  Tkatchenko/Scheffler method for vdW energy calculation
  ---------------------------------------------------------------------------------------------

  Parameters of vdW forcefield:
            C6ts              R0ts           ALPHAts        RELVOL
            (au)              (au)            (au)                
   ---------------------------------------------------------------
   C          29.993          3.336          9.627          0.802
   C          33.928          3.406         10.239          0.853
   C          29.523          3.327          9.551          0.796
   C          34.216          3.410         10.283          0.857
   C          33.575          3.400         10.186          0.849
   C          32.841          3.387         10.074          0.839
   C          32.682          3.384         10.049          0.837
   C          30.945          3.354          9.779          0.815
   C          29.835          3.333          9.602          0.800
   C          30.062          3.338          9.638          0.803
   C          31.331          3.361          9.839          0.820
   C          32.674          3.384         10.048          0.837
   C          32.536          3.382         10.027          0.836
   C          33.208          3.393         10.130          0.844
   C          34.263          3.411         10.290          0.857
   C          33.089          3.391         10.112          0.843
   C          28.551          3.309          9.393          0.783
   C          29.399          3.325          9.531          0.794
   C          33.154          3.392         10.122          0.843
   C          29.239          3.322          9.505          0.792
   C          29.848          3.334          9.604          0.800
   C          33.244          3.394         10.135          0.845
   C          29.397          3.325          9.531          0.794
   C          29.641          3.330          9.570          0.798
   C          32.402          3.379         10.006          0.834
   C          32.983          3.390         10.096          0.841
   C          34.136          3.409         10.271          0.856
   C          31.106          3.357          9.804          0.817
   C          30.639          3.348          9.730          0.811
   C          30.375          3.343          9.688          0.807
   C          30.379          3.343          9.689          0.807
   C          31.607          3.366          9.883          0.824
   C          33.116          3.392         10.116          0.843
   C          31.720          3.368          9.900          0.825
   C          30.332          3.342          9.681          0.807
   C          29.995          3.336          9.628          0.802
   C          31.330          3.361          9.839          0.820
   C          32.914          3.388         10.085          0.840
   C          32.948          3.389         10.090          0.841
   C          34.095          3.408         10.264          0.855
   C          31.769          3.368          9.908          0.826
   C          30.731          3.350          9.745          0.812
   C          30.577          3.347          9.720          0.810
   C          30.216          3.340          9.663          0.805
   C          31.457          3.363          9.859          0.822
   C          32.530          3.382         10.026          0.835
   C          33.153          3.392         10.122          0.843
   C          29.385          3.325          9.529          0.794
   C          28.628          3.310          9.405          0.784
   C          33.133          3.392         10.118          0.843
   C          29.453          3.326          9.540          0.795
   C          29.405          3.325          9.532          0.794
   H           2.654          2.669          2.876          0.639
   H           2.789          2.691          2.948          0.655
   H           3.211          2.755          3.163          0.703
   H           3.358          2.776          3.234          0.719
   H           2.611          2.662          2.852          0.634
   H           2.705          2.678          2.903          0.645
   H           2.946          2.716          3.030          0.673
   H           2.959          2.718          3.036          0.675
   H           2.299          2.606          2.676          0.595
   H           2.393          2.624          2.730          0.607
   H           3.258          2.762          3.186          0.708
   H           3.251          2.761          3.183          0.707
   H           2.660          2.670          2.879          0.640
   H           2.402          2.625          2.735          0.608
   H           2.890          2.708          3.001          0.667
   H           2.726          2.681          2.914          0.648
   H           2.492          2.642          2.786          0.619
   H           3.295          2.767          3.204          0.712
   H           2.995          2.724          3.055          0.679
   H           2.531          2.648          2.808          0.624
   H           3.268          2.764          3.191          0.709
   H           2.588          2.658          2.839          0.631
   H           3.345          2.774          3.228          0.717
   H           2.743          2.684          2.923          0.650
   H           2.641          2.667          2.869          0.637
   H           2.940          2.715          3.026          0.673
   H           3.300          2.768          3.206          0.712
   H           2.601          2.660          2.846          0.633
   H           2.593          2.659          2.842          0.632
   H           2.984          2.722          3.049          0.678
   H           2.667          2.672          2.883          0.641
   H           2.571          2.655          2.830          0.629
   H           2.571          2.655          2.830          0.629
   H           2.531          2.648          2.808          0.624
   H           2.378          2.621          2.722          0.605
   H           2.442          2.633          2.758          0.613
   H           2.738          2.683          2.921          0.649
   H           3.291          2.767          3.202          0.712
   H           2.372          2.620          2.718          0.604
   H           2.326          2.611          2.692          0.598
   H           3.131          2.744          3.123          0.694
   H           2.862          2.703          2.986          0.664
   H           2.515          2.646          2.799          0.622
   H           2.466          2.637          2.772          0.616
   H           2.331          2.612          2.695          0.599
   H           2.720          2.680          2.911          0.647
   H           3.218          2.756          3.166          0.704
   H           2.832          2.698          2.970          0.660
   H           2.470          2.638          2.774          0.616
   H           3.081          2.736          3.098          0.688
   H           2.652          2.669          2.874          0.639
   H           2.326          2.611          2.692          0.598
   H           2.996          2.724          3.055          0.679
   H           2.909          2.710          3.010          0.669
   H           2.760          2.687          2.932          0.652
   H           3.188          2.752          3.152          0.700
   H           2.444          2.633          2.759          0.613
   H           3.053          2.732          3.084          0.685
   H           2.661          2.671          2.879          0.640
   H           2.544          2.651          2.815          0.626
   Si        205.597          3.928         30.378          0.821
   Si        204.712          3.925         30.313          0.819

  IVDW =   2
  VDW_RADIUS =    50.000 A
  VDW_IDAMPF =  0
  VDW_S6 =     1.000
  VDW_SR =     0.940
  VDW_D =    20.000
  LVDW_ONECELL = F F F
  LVDW_SAMETYPE T T T
  LVDW_EWALD = F

  Number of pair interactions contributing to vdW energy:  135447
  Edisp (eV):   -3.20010
    FORVDW:  cpu time   22.6057: real time   22.6473

 VOLUME and BASIS-vectors are now :
 -----------------------------------------------------------------------------
  energy-cutoff  :      500.00
  volume of cell :    27000.00
      direct lattice vectors                 reciprocal lattice vectors
    30.000000000  0.000000000  0.000000000     0.033333333  0.000000000  0.000000000
     0.000000000 30.000000000  0.000000000     0.000000000  0.033333333  0.000000000
     0.000000000  0.000000000 30.000000000     0.000000000  0.000000000  0.033333333

  length of vectors
    30.000000000 30.000000000 30.000000000     0.033333333  0.033333333  0.033333333


 FORCES acting on ions:
    Electron-Ion                     Ewald-Force                    Non-Local-Force
 -----------------------------------------------------------------------------------------------
   0.377E+02 0.972E+02 0.260E+03   -.384E+02 -.969E+02 -.261E+03   0.869E+00 -.295E+00 -.103E+01
   -.139E+03 0.339E+02 0.134E+03   0.138E+03 -.336E+02 -.131E+03   0.122E+01 -.199E+00 -.308E+01
   -.210E+03 0.173E+03 0.194E+03   0.210E+03 -.173E+03 -.194E+03   0.599E+00 0.120E+01 -.192E+01
   -.127E+03 0.127E+03 -.614E+02   0.134E+03 -.131E+03 0.598E+02   -.605E+01 0.234E+01 0.129E+01
   -.320E+02 0.733E+02 -.881E+02   0.303E+02 -.720E+02 0.881E+02   -.924E+00 0.120E+01 0.694E+00
   -.939E+02 0.299E+01 -.137E+03   0.945E+02 -.389E+01 0.140E+03   0.311E+01 -.420E+01 -.109E+01
   -.453E+02 0.620E+02 -.164E+03   0.467E+02 -.621E+02 0.163E+03   0.408E+00 0.151E+01 -.592E+00
   -.150E+03 0.115E+03 -.244E+03   0.152E+03 -.116E+03 0.246E+03   -.170E+01 -.116E+00 0.375E+00
   -.688E+02 0.182E+03 -.316E+03   0.709E+02 -.183E+03 0.316E+03   -.376E-01 0.516E+00 -.664E+00
   0.994E+02 0.167E+03 -.301E+03   -.101E+03 -.167E+03 0.301E+03   -.285E+00 0.393E+00 -.540E+00
   0.163E+03 0.926E+02 -.220E+03   -.165E+03 -.937E+02 0.222E+03   0.163E+01 -.489E+00 0.574E+00
   0.624E+02 0.524E+02 -.146E+03   -.643E+02 -.519E+02 0.145E+03   -.174E+00 0.109E+01 -.301E+00
   0.913E+02 -.779E+01 -.107E+03   -.912E+02 0.700E+01 0.110E+03   -.338E+01 -.295E+01 -.192E+00
   0.410E+02 0.586E+02 -.671E+02   -.399E+02 -.581E+02 0.667E+02   0.791E+00 0.751E+00 0.504E+00
   0.143E+03 0.898E+02 -.331E+02   -.151E+03 -.911E+02 0.317E+02   0.651E+01 0.606E+00 0.115E+01
   0.148E+03 0.346E+02 0.139E+03   -.148E+03 -.342E+02 -.137E+03   -.563E+00 -.606E+00 -.326E+01
   0.253E+03 0.126E+03 0.171E+03   -.252E+03 -.126E+03 -.171E+03   0.134E+00 0.693E+00 -.457E+00
   -.735E+01 0.195E+03 0.221E+03   0.799E+01 -.195E+03 -.221E+03   -.193E+00 -.785E+00 0.113E+01
   0.199E+03 -.949E+02 -.181E+02   -.198E+03 0.940E+02 0.167E+02   -.196E+01 0.265E+01 0.127E+01
   0.298E+03 -.286E+02 -.131E+03   -.298E+03 0.291E+02 0.132E+03   -.365E+00 0.195E+00 0.289E+00
   0.103E+03 -.187E+03 -.208E+03   -.103E+03 0.187E+03 0.208E+03   -.881E+00 0.128E+00 0.914E+00
   0.654E+02 0.184E+03 -.429E+02   -.638E+02 -.181E+03 0.411E+02   0.103E+01 -.236E+01 0.812E+00
   0.525E+02 0.137E+03 -.255E+03   -.524E+02 -.137E+03 0.255E+03   0.138E+01 0.902E+00 0.288E+00
   0.232E+03 0.222E+03 -.441E+02   -.234E+03 -.223E+03 0.447E+02   -.514E+00 -.277E+01 0.427E+00
   0.183E+02 -.284E+02 -.851E+01   -.179E+02 0.291E+02 0.704E+01   0.922E-02 0.512E+00 0.869E+00
   0.465E+02 -.952E+02 0.504E+02   -.462E+02 0.962E+02 -.514E+02   0.975E+00 0.489E+00 -.465E+00
   0.557E+02 -.114E+03 0.453E+02   -.573E+02 0.114E+03 -.449E+02   0.453E+00 -.207E-01 -.824E+00
   0.688E+02 -.286E+03 -.135E+03   -.689E+02 0.287E+03 0.136E+03   -.345E+00 -.551E+00 -.138E+01
   0.199E+03 -.301E+03 -.456E+02   -.199E+03 0.302E+03 0.466E+02   0.356E+00 -.165E+00 -.291E+00
   0.279E+03 -.198E+03 0.160E+03   -.280E+03 0.199E+03 -.160E+03   0.120E+00 0.113E+00 0.210E+00
   0.171E+03 -.438E+02 0.316E+03   -.171E+03 0.430E+02 -.317E+03   -.320E+00 0.377E+00 0.222E+00
   0.372E+02 0.310E+02 0.276E+03   -.357E+02 -.321E+02 -.276E+03   -.272E+00 0.279E+00 0.262E+00
   0.167E+02 -.147E+03 0.121E+03   -.189E+02 0.147E+03 -.121E+03   -.987E+00 -.680E-01 0.214E+00
   0.121E+03 -.220E+03 0.194E+03   -.122E+03 0.221E+03 -.195E+03   0.220E+01 0.611E-01 -.166E+00
   0.460E+02 -.270E+03 0.262E+03   -.480E+02 0.270E+03 -.262E+03   -.333E+00 -.236E+00 0.160E+00
   -.124E+03 -.252E+03 0.249E+03   0.126E+03 0.252E+03 -.248E+03   -.197E+00 -.977E+00 0.849E+00
   -.182E+03 -.196E+03 0.180E+03   0.184E+03 0.197E+03 -.182E+03   -.198E+01 0.789E+00 -.780E+00
   -.621E+02 -.141E+03 0.119E+03   0.636E+02 0.140E+03 -.118E+03   0.150E-01 -.486E+00 0.309E+00
   -.673E+02 -.812E+02 0.592E+02   0.678E+02 0.818E+02 -.609E+02   -.432E+00 0.937E+00 -.634E+00
   -.876E+02 -.121E+03 0.368E+02   0.881E+02 0.120E+03 -.363E+02   -.329E+00 0.345E+00 0.134E+00
   -.119E+03 -.396E+02 0.254E+03   0.119E+03 0.387E+02 -.256E+03   0.121E+01 0.417E+00 0.232E+00
   -.255E+03 -.100E+03 0.210E+03   0.255E+03 0.100E+03 -.210E+03   -.191E+00 0.430E+00 0.769E+00
   -.317E+03 -.185E+03 -.558E+01   0.318E+03 0.185E+03 0.526E+01   -.493E+00 -.187E+00 -.373E+00
   -.202E+03 -.238E+03 -.201E+03   0.202E+03 0.239E+03 0.202E+03   0.291E+00 -.159E+00 -.703E+00
   -.772E+02 -.240E+03 -.203E+03   0.768E+02 0.241E+03 0.204E+03   0.710E+00 0.140E+00 -.467E+00
   -.138E+02 -.249E+02 -.123E+02   0.131E+02 0.255E+02 0.108E+02   -.279E+00 0.801E+00 0.837E+00
   -.143E+03 -.261E+02 -.117E+03   0.141E+03 0.259E+02 0.116E+03   0.249E+01 0.198E+01 0.194E+01
   -.316E+03 -.352E+02 0.505E+01   0.317E+03 0.354E+02 -.473E+01   -.827E-01 0.330E+00 -.924E+00
   -.168E+03 0.691E+02 -.264E+03   0.168E+03 -.692E+02 0.264E+03   0.289E-01 -.849E-01 0.348E+00
   -.379E+02 0.184E+03 -.115E+03   0.379E+02 -.180E+03 0.115E+03   -.894E+00 -.149E+01 0.658E+00
   0.925E+02 0.273E+03 0.398E+02   -.935E+02 -.273E+03 -.395E+02   -.179E+01 0.254E+00 0.405E+00
   -.189E+03 0.271E+03 -.391E+02   0.189E+03 -.272E+03 0.391E+02   0.478E+00 -.873E+00 0.168E+01
   -.150E+02 -.885E+01 0.109E+03   0.153E+02 0.111E+02 -.113E+03   -.101E+01 -.242E+01 0.416E+01
   0.194E+02 0.822E+02 0.744E+02   -.204E+02 -.867E+02 -.757E+02   0.103E+01 0.478E+01 0.155E+01
   0.484E+02 0.172E+02 0.335E+02   -.530E+02 -.151E+02 -.309E+02   0.448E+01 -.168E+01 -.281E+01
   -.713E+02 -.401E+02 0.556E+02   0.731E+02 0.437E+02 -.565E+02   -.259E+01 -.404E+01 0.103E+01
   -.435E+02 0.212E+02 0.102E+03   0.438E+02 -.207E+02 -.106E+03   -.204E+00 -.836E+00 0.462E+01
   -.103E+03 0.241E+02 0.251E+02   0.108E+03 -.240E+02 -.235E+02   -.503E+01 -.736E+00 -.132E+01
   -.173E+02 0.965E+02 0.436E+02   0.154E+02 -.102E+03 -.429E+02   0.214E+01 0.513E+01 -.306E+00
   -.733E+02 0.272E+02 -.677E+02   0.797E+02 -.276E+02 0.678E+02   -.589E+01 0.378E+00 -.285E-01
   -.313E+02 0.609E+02 -.978E+02   0.337E+02 -.638E+02 0.102E+03   -.233E+01 0.299E+01 -.406E+01
   0.458E+02 0.559E+02 -.952E+02   -.498E+02 -.589E+02 0.998E+02   0.353E+01 0.260E+01 -.391E+01
   0.681E+02 0.179E+02 -.584E+02   -.736E+02 -.175E+02 0.582E+02   0.563E+01 -.431E+00 0.258E+00
   0.537E+02 -.435E+02 0.699E+02   -.541E+02 0.488E+02 -.725E+02   0.621E+00 -.470E+01 0.263E+01
   0.102E+03 -.899E+01 0.113E+02   -.107E+03 0.115E+02 -.887E+01   0.419E+01 -.265E+01 -.243E+01
   0.528E+02 0.247E+02 0.942E+02   -.535E+02 -.248E+02 -.983E+02   0.529E+00 0.153E+00 0.490E+01
   0.423E+02 0.936E+02 0.212E+02   -.420E+02 -.995E+02 -.192E+02   -.600E+00 0.532E+01 -.170E+01
   0.783E+01 0.105E+03 0.323E+02   -.822E+01 -.109E+03 -.320E+02   0.719E+00 0.475E+01 -.969E+00
   -.237E+01 0.268E+02 0.107E+03   0.348E+01 -.258E+02 -.113E+03   -.110E+01 -.112E+01 0.530E+01
   -.389E+02 0.422E+02 0.199E+02   0.433E+02 -.410E+02 -.175E+02   -.419E+01 -.122E+01 -.303E+01
   0.771E+02 -.636E+02 0.381E+02   -.785E+02 0.661E+02 -.414E+02   0.156E+01 -.316E+01 0.343E+01
   0.757E+02 -.472E+02 -.679E+02   -.772E+02 0.499E+02 0.705E+02   0.161E+01 -.314E+01 -.331E+01
   0.531E+02 0.366E+02 -.723E+02   -.521E+02 -.406E+02 0.751E+02   -.131E+01 0.421E+01 -.294E+01
   0.107E+03 0.301E+01 0.186E+02   -.111E+03 -.445E+01 -.222E+02   0.410E+01 0.110E+01 0.350E+01
   -.219E+02 -.277E+02 -.598E+02   0.275E+02 0.266E+02 0.599E+02   -.537E+01 0.137E+01 -.535E-01
   0.418E+02 -.292E+02 -.103E+03   -.430E+02 0.287E+02 0.107E+03   0.174E+01 0.652E+00 -.452E+01
   0.396E+02 -.985E+02 -.331E+02   -.401E+02 0.104E+03 0.321E+02   0.563E+00 -.523E+01 0.869E+00
   -.253E+02 0.954E+02 0.138E+02   0.279E+02 -.979E+02 -.155E+02   -.327E+01 0.304E+01 0.185E+01
   0.720E+01 -.268E+02 -.736E+02   -.625E+01 0.310E+02 0.747E+02   -.116E+01 -.485E+01 -.503E+00
   -.283E+02 0.676E+02 -.579E+02   0.320E+02 -.697E+02 0.588E+02   -.428E+01 0.236E+01 -.991E+00
   0.536E+02 0.452E+02 -.931E+02   -.573E+02 -.467E+02 0.970E+02   0.354E+01 0.168E+01 -.374E+01
   0.993E+02 0.169E+02 0.141E+02   -.104E+03 -.137E+02 -.166E+02   0.440E+01 -.268E+01 0.246E+01
   0.610E+02 0.629E+02 -.669E+02   -.622E+02 -.638E+02 0.697E+02   0.121E+01 0.158E+01 -.408E+01
   0.347E+02 0.100E+03 0.206E+02   -.347E+02 -.103E+03 -.225E+02   -.298E+00 0.415E+01 0.219E+01
   -.461E+01 -.894E+02 -.813E+02   0.733E+01 0.922E+02 0.874E+02   -.240E+01 -.226E+01 -.507E+01
   0.682E+02 -.972E+02 -.366E+02   -.717E+02 0.101E+03 0.401E+02   0.337E+01 -.343E+01 -.308E+01
   0.100E+03 -.524E+02 0.485E+02   -.105E+03 0.536E+02 -.499E+02   0.504E+01 -.115E+01 0.158E+01
   0.533E+02 0.712E+01 0.111E+03   -.553E+02 -.915E+01 -.115E+03   0.238E+01 0.191E+01 0.451E+01
   -.177E+02 0.484E+02 0.101E+03   0.211E+02 -.522E+02 -.105E+03   -.314E+01 0.350E+01 0.327E+01
   0.633E+02 -.681E+02 0.567E+02   -.689E+02 0.688E+02 -.570E+02   0.573E+01 -.472E+00 0.281E+00
   0.308E+02 -.827E+02 0.822E+02   -.331E+02 0.861E+02 -.857E+02   0.256E+01 -.336E+01 0.349E+01
   -.545E+02 -.770E+02 0.783E+02   0.589E+02 0.810E+02 -.827E+02   -.375E+01 -.323E+01 0.352E+01
   -.838E+02 -.561E+02 0.475E+02   0.905E+02 0.558E+02 -.472E+02   -.604E+01 0.230E+00 -.232E+00
   -.899E+01 0.164E+02 0.111E+03   0.690E+01 -.187E+02 -.116E+03   0.167E+01 0.223E+01 0.496E+01
   -.846E+02 -.135E+02 0.862E+02   0.886E+02 0.119E+02 -.910E+02   -.380E+01 0.136E+01 0.418E+01
   -.109E+03 -.482E+02 -.642E+01   0.115E+03 0.488E+02 0.701E+01   -.538E+01 -.660E+00 -.651E+00
   -.601E+02 -.678E+02 -.861E+02   0.625E+02 0.703E+02 0.918E+02   -.248E+01 -.212E+01 -.487E+01
   0.901E+01 -.735E+02 -.933E+02   -.132E+02 0.753E+02 0.984E+02   0.361E+01 -.153E+01 -.442E+01
   -.271E+02 -.615E+02 -.573E+02   0.255E+02 0.651E+02 0.581E+02   0.139E+01 -.441E+01 -.148E+01
   -.938E+02 0.501E+02 0.124E+02   0.963E+02 -.542E+02 -.135E+02   -.221E+01 0.456E+01 0.114E+01
   -.949E+02 -.466E+02 -.328E+02   0.981E+02 0.494E+02 0.351E+02   -.309E+01 -.339E+01 -.233E+01
   -.618E+02 -.355E+02 0.533E+02   0.608E+02 0.378E+02 -.578E+02   0.138E+01 -.241E+01 0.444E+01
   -.956E+02 0.317E+02 -.478E+02   0.999E+02 -.332E+02 0.481E+02   -.488E+01 0.133E+01 0.104E+00
   -.247E+02 -.241E+02 -.991E+02   0.241E+02 0.266E+02 0.103E+03   0.833E+00 -.283E+01 -.411E+01
   -.411E+01 0.628E+02 -.684E+02   0.118E+01 -.673E+02 0.691E+02   0.328E+01 0.423E+01 -.368E+00
   0.112E+02 0.483E+02 -.904E+02   -.125E+02 -.483E+02 0.945E+02   0.164E+01 -.142E+00 -.463E+01
   0.352E+01 0.875E+02 0.673E+02   -.214E+01 -.900E+02 -.728E+02   -.942E+00 0.238E+01 0.497E+01
   0.534E+02 0.280E+02 0.175E+02   -.562E+02 -.252E+02 -.183E+02   0.311E+01 -.374E+01 0.679E+00
   0.416E+02 0.949E+02 -.286E+02   -.438E+02 -.977E+02 0.306E+02   0.266E+01 0.318E+01 -.249E+01
   -.929E+02 0.318E+02 0.803E+01   0.974E+02 -.294E+02 -.990E+01   -.443E+01 -.269E+01 0.149E+01
   -.218E+02 0.106E+03 0.286E+02   0.214E+02 -.109E+03 -.312E+02   0.112E+01 0.403E+01 0.273E+01
   -.463E+02 0.745E+02 -.677E+02   0.475E+02 -.761E+02 0.712E+02   -.112E+01 0.171E+01 -.438E+01
   -.921E+02 0.712E+02 -.413E+02   0.941E+02 -.728E+02 0.406E+02   -.339E+01 0.144E+01 0.147E+01
   0.118E+03 0.518E+02 0.138E+01   -.121E+03 -.522E+02 -.196E+01   0.411E+01 -.353E+00 0.128E+01
 -----------------------------------------------------------------------------------------------
   -.954E+00 -.386E+01 -.391E+01   -.171E-12 -.853E-13 -.830E-13   0.892E+00 0.362E+01 0.370E+01
 
 
 POSITION                                       TOTAL-FORCE (eV/Angst)
 -----------------------------------------------------------------------------------
     19.33743     13.28974     12.65035         0.154402      0.060646     -1.438287
     20.62542     13.36034     13.45241         0.910224      0.143818     -0.779169
     21.53149     12.24977     12.92394         0.711191      1.193224     -2.197191
     18.73496     14.21113     15.58800         1.432251     -1.097287     -0.168578
     17.70670     14.79286     15.79767        -2.620039      2.529144      0.726414
     16.40472     15.51420     16.03865         3.861083     -5.372200      1.435013
     15.63454     14.83121     16.98948         1.907829      1.554045     -1.098738
     16.23933     14.10530     17.96592         0.438967     -1.808512      2.295792
     15.46987     13.46929     18.92285         2.075174      0.035167     -0.269326
     14.11404     13.59915     18.84160        -2.350706      0.521974     -0.633510
     13.50511     14.34330     17.83903        -0.951680     -1.633259      2.156861
     14.28613     14.96045     16.90941        -2.067600      1.613839     -0.957364
     13.71264     15.76051     15.88932        -3.454821     -3.921084      2.049437
     12.30432     15.43653     15.68033         1.794044      1.234391      0.134436
     11.13876     15.17536     15.51430        -1.103069     -0.579078     -0.166160
      9.04368     14.45265     13.50274        -0.406089     -0.207756     -1.461408
      7.76470     13.67935     13.18778         0.467898      0.483294     -1.135684
     10.24285     13.72645     12.92353         0.444848     -1.053343      1.382936
      8.36959     16.09604     16.01361        -0.724200      1.888880      0.003590
      7.17053     15.53536     16.74947        -0.586431      0.685090      1.276163
      9.19134     16.96789     16.97199        -0.368310     -0.048422      1.502889
      9.08752     13.13831     16.26663         2.790889      0.233889     -0.990249
      9.55140     13.35449     17.69588         1.637668      0.841207      0.526596
      7.76609     12.53876     16.14675        -1.789337     -4.169929      1.056306
     14.47100     16.42014     15.01386         0.389220      1.241607     -0.543150
     13.89147     17.25998     14.11550         1.350684      1.434507     -1.547261
     12.48061     17.50722     13.92425        -1.120162     -0.223644     -0.474195
     11.70725     18.33782     14.70980        -0.479431     -0.170555     -0.698382
     10.40494     18.62338     14.30540         0.059527      0.430774      0.683369
      9.87951     18.09806     13.15352        -1.316908      0.661788      0.073886
     10.64184     17.27543     12.37855        -1.023936     -0.411371     -1.219356
     11.90685     16.99017     12.76036         1.139960     -0.784849     -0.122588
     14.76067     17.99887     13.27791        -3.269954     -0.358790      0.249585
     14.16309     18.87678     12.36836         0.725087      1.182789     -1.093422
     14.97918     19.62632     11.54875        -2.392612      0.306377     -0.314047
     16.34573     19.52322     11.61600         1.647558     -1.637941      1.630915
     16.92949     18.63720     12.53632        -0.442624      2.586336     -2.459882
     16.12693     17.88489     13.35671         1.526916     -1.400491      1.024048
     16.69650     17.00509     14.29432         0.066812      1.636603     -2.396774
     18.12865     17.06576     14.40946         0.199303     -0.115131      0.716921
     18.98137     16.71124     13.41057         1.801357     -0.506446     -1.454963
     20.36352     16.86407     13.55028        -0.192575      0.296768      0.680573
     20.88652     17.38463     14.73129         0.397144     -0.255286     -0.722588
     20.01142     17.73450     15.73171         0.565767      0.074968      0.149590
     18.66011     17.57572     15.56789         0.320580      0.404419      0.712668
     15.88133     16.29060     15.09747        -0.927059      1.373984     -0.613826
     21.61436     14.12090     16.28237         0.252362      1.961762      1.075455
     22.87996     14.35091     15.49549         0.213677      0.544593     -0.660075
     21.88970     13.38474     17.57922         0.467157     -0.192668      0.873978
     20.04367     11.50048     15.74990        -0.948170      1.688307      0.652194
     18.89256     10.98596     14.94703        -2.917928      0.237077      0.757205
     21.28000     10.71297     15.57309         1.107147     -2.270466      1.805446
     19.54892     13.85293     11.69875        -0.792685     -0.310032      0.765854
     19.12930     12.24677     12.32673         0.112105      0.556670      0.277611
     18.45713     13.63304     13.19502         0.045803      0.358280     -0.387500
     21.20736     14.29448     13.21840        -0.915424     -0.582015      0.233565
     21.57731     12.45044     11.80168         0.037901     -0.430697      1.020200
     22.58288     12.38404     13.23243        -0.466233     -0.620304      0.205610
     21.11817     11.25012     13.00763         0.302739     -0.108767      0.367611
     17.31198     14.04059     17.97736         0.234227     -0.049616      0.063563
     15.92585     12.88073     19.72256        -0.074029      0.204786     -0.253269
     13.47792     13.12360     19.55870        -0.261568     -0.251246      0.414716
     12.41727     14.42951     17.79559         0.412518     -0.018886      0.062739
      8.92181     15.40227     12.98628         0.182501      0.367114      0.203008
      6.93650     14.18893     13.66562        -0.564764     -0.241286     -0.134709
      7.63594     13.65141     12.06903        -0.169986      0.040146      0.995446
      7.87421     12.65893     13.52397        -0.345103     -0.321215      0.148185
     10.07109     12.63148     13.12960         0.376501      0.800762     -0.680131
     10.44544     13.93990     11.88143        -0.043572     -0.189600     -0.264824
     11.12055     13.98439     13.54398         0.030103     -0.127292     -0.750290
      8.00542     16.80121     15.21771         0.260987     -0.805126      0.376348
      6.79039     16.28102     17.51277         0.148570     -0.612177     -0.954167
      7.44937     14.65191     17.34896        -0.351919      0.358752     -0.313903
      6.36710     15.30300     16.05737        -0.250774     -0.290247      0.114410
     10.24887     16.70135     16.98379        -0.046381      0.336173      0.021245
      8.78851     16.80929     18.01403         0.587388      0.169457     -0.843023
      9.07350     18.04033     16.78047         0.138806     -0.234220     -0.069056
      9.84497     12.42599     15.81902        -0.734803      0.694415      0.218843
      9.79606     14.44181     17.81867        -0.257138     -0.873194      0.632798
     10.51344     12.81685     17.91439        -0.837382      0.409396     -0.190282
      8.82578     13.02315     18.44078        -0.040911      0.224126      0.000377
      6.95161     13.06795     15.68599        -0.228133      0.397641      0.044472
      7.44696     12.16127     17.19098        -0.013030      0.757915     -1.486096
      7.84077     11.54220     15.59315        -0.264084      1.212425      0.368615
     12.12253     18.73899     15.59893         0.180194      0.422820      0.720693
      9.77212     19.27202     14.89389         0.105989      0.117597      0.203737
      8.85144     18.33322     12.83788         0.499983     -0.035434      0.294521
     10.17419     16.88080     11.46703         0.553016     -0.041203      0.300452
     12.50374     16.33361     12.14285         0.154919     -0.057279     -0.042621
     13.08176     18.96633     12.31631         0.452126      0.143541     -0.068962
     14.48255     20.30502     10.84523         0.380746     -0.137608      0.167697
     16.99069     20.09064     10.99841         0.432036      0.585887     -0.623812
     17.99288     18.58868     12.58188         0.381828     -0.019842      0.079096
     18.64693     16.29242     12.46798        -0.314033      0.015733      0.153846
     21.05492     16.60478     12.77102        -0.021920     -0.192596     -0.424492
     21.96921     17.51617     14.86202        -0.500048     -0.093141     -0.091848
     20.44973     18.12346     16.62709        -0.183804      0.265916      0.592141
     18.00305     17.85226     16.36435        -0.367742      0.171812      0.389166
     21.28037     15.15231     16.61093        -0.142692     -1.022065     -0.772340
     23.35495     13.38037     15.25654         0.192240      0.623848      0.112389
     23.55698     15.06536     16.01037        -0.041732     -0.734490     -0.153158
     22.59456     14.84926     14.55324         0.459167     -0.227558      0.130193
     22.96436     13.07855     17.56262        -0.846158     -0.122965      0.414642
     21.70857     14.01709     18.48275         0.241141     -0.483237     -0.659466
     21.22569     12.51550     17.65680         0.505261      0.020621      0.400126
     19.68666     11.53009     16.81653         0.452955     -0.106182     -0.813093
     19.10579     10.53671     13.99018         0.376180     -0.042797     -0.348024
     18.17899     11.84855     14.77613         0.387531     -1.131765     -0.033534
     18.28410     10.23102     15.53134         0.630488      0.540662     -0.624950
     22.16468     11.27264     15.25473        -0.150391     -0.353539     -0.293649
     21.04536      9.81615     14.93969         0.778182      0.831727      0.334150
     21.55233     10.30730     16.59462         0.063698      0.122152     -1.091897
     20.32377     13.31032     15.25526        -1.543545     -0.079980      0.827232
      9.34335     14.74400     15.27357         1.269073     -0.665532      0.697702
 -----------------------------------------------------------------------------------
    total drift:                               -0.050869      0.021988      0.001084


--------------------------------------------------------------------------------------------------------



  FREE ENERGIE OF THE ION-ELECTRON SYSTEM (eV)
  ---------------------------------------------------
  free  energy   TOTEN  =      -839.89344010 eV

  energy  without entropy=     -839.89344010  energy(sigma->0) =     -839.89344010
 


--------------------------------------------------------------------------------------------------------


    POTLOK:  cpu time    3.9434: real time    3.9517


--------------------------------------------------------------------------------------------------------


 stress matrix after NEB project (eV)
     -2.82853     -0.00620      0.05976
     -0.00620     -2.23426      0.63339
      0.05976      0.63339     -1.63293
  FORCES: max atom, RMS     6.769620    1.780970
  FORCE total and by dimension   19.015555    5.372200
  Stress total and by dimension    4.058149    2.828533
     LOOP+:  cpu time11616.0632: real time11650.7120
    4ORBIT:  cpu time    0.0000: real time    0.0000

 total amount of memory used by VASP on root node  2667692. kBytes
========================================================================

   base      :      30000. kBytes
   nonl-proj :     690850. kBytes
   fftplans  :     338850. kBytes
   grid      :     799755. kBytes
   one-center:        175. kBytes
   HF        :         13. kBytes
   nonlr-proj:       1196. kBytes
   wavefun   :     806853. kBytes
 
  
  
 General timing and accounting informations for this job:
 ========================================================
  
                  Total CPU time used (sec):    11662.908
                            User time (sec):    11602.247
                          System time (sec):       60.661
                         Elapsed time (sec):    11702.506
  
                   Maximum memory used (kb):     3557956.
                   Average memory used (kb):           0.
  
                          Minor page faults:       876316
                          Major page faults:          202
                 Voluntary context switches:         3103
