Molecule_POSCAR_06                      
   1.00000000000000     
    20.0000000000000000    0.0000000000000000    0.0000000000000000
     0.0000000000000000   20.0000000000000000    0.0000000000000000
     0.0000000000000000    0.0000000000000000   20.0000000000000000
   C    H    N 
     8    15     1
Direct
  0.3165717500000014  0.4863208499999985  0.5027538000000007
  0.3813688999999982  0.5156520000000029  0.5291885500000006
  0.4369214000000028  0.4880069499999991  0.4864900500000005
  0.5050598999999991  0.5135620000000003  0.5077403000000018
  0.5538620499999993  0.4810862499999971  0.4600930000000005
  0.6251247499999977  0.5007293000000033  0.4735477500000016
  0.6464175999999995  0.4809156999999971  0.5435536999999968
  0.6357862999999995  0.5724741499999979  0.4644322500000015
  0.3168154500000000  0.4313484500000015  0.5057375000000022
  0.3109523999999979  0.4983208000000019  0.4479941000000025
  0.2726287500000026  0.5044465499999973  0.5296323500000000
  0.3855312000000026  0.4983932499999995  0.5820532999999983
  0.3785775999999998  0.5701983499999983  0.5247633999999977
  0.4345367999999965  0.4333110500000004  0.4857410999999985
  0.4285721999999978  0.5083610000000007  0.4348255000000023
  0.5038276499999981  0.5686904499999983  0.5030445499999985
  0.5160363000000032  0.5011107500000023  0.5606266500000032
  0.5403935499999974  0.4955201000000002  0.4092058499999993
  0.5499981000000034  0.4262013000000024  0.4682920500000023
  0.6568328000000037  0.4714902500000022  0.4387104999999991
  0.6972829500000017  0.4569171999999995  0.5429642000000001
  0.6114342500000021  0.4422898500000016  0.5640099000000021
  0.6508711500000004  0.5251244999999969  0.5764561499999985
  0.6445962499999993  0.6295289500000010  0.4581435500000026
 
  0.00000000E+00  0.00000000E+00  0.00000000E+00
  0.00000000E+00  0.00000000E+00  0.00000000E+00
  0.00000000E+00  0.00000000E+00  0.00000000E+00
  0.00000000E+00  0.00000000E+00  0.00000000E+00
  0.00000000E+00  0.00000000E+00  0.00000000E+00
  0.00000000E+00  0.00000000E+00  0.00000000E+00
  0.00000000E+00  0.00000000E+00  0.00000000E+00
  0.00000000E+00  0.00000000E+00  0.00000000E+00
  0.00000000E+00  0.00000000E+00  0.00000000E+00
  0.00000000E+00  0.00000000E+00  0.00000000E+00
  0.00000000E+00  0.00000000E+00  0.00000000E+00
  0.00000000E+00  0.00000000E+00  0.00000000E+00
  0.00000000E+00  0.00000000E+00  0.00000000E+00
  0.00000000E+00  0.00000000E+00  0.00000000E+00
  0.00000000E+00  0.00000000E+00  0.00000000E+00
  0.00000000E+00  0.00000000E+00  0.00000000E+00
  0.00000000E+00  0.00000000E+00  0.00000000E+00
  0.00000000E+00  0.00000000E+00  0.00000000E+00
  0.00000000E+00  0.00000000E+00  0.00000000E+00
  0.00000000E+00  0.00000000E+00  0.00000000E+00
  0.00000000E+00  0.00000000E+00  0.00000000E+00
  0.00000000E+00  0.00000000E+00  0.00000000E+00
  0.00000000E+00  0.00000000E+00  0.00000000E+00
  0.00000000E+00  0.00000000E+00  0.00000000E+00
