 vasp.6.4.2 20Jul23 (build Mar 28 2025 16:44:38) complex                        
  
 executed on             LinuxIFC date 2026.02.17  14:50:11
 running   32 mpi-ranks, on    1 nodes
 distrk:  each k-point on   32 cores,    1 groups
 distr:  one band on NCORE=   4 cores,    8 groups


--------------------------------------------------------------------------------------------------------


 INCAR:
   SYSTEM = QM9_Benchmark_B3LYP_Gap_Dipole
   PREC = Accurate
   ENCUT = 500
   EDIFF = 1E-6
   ISMEAR = 0
   SIGMA = 0.05
   NELM = 100
   IBRION = -1
   NSW = 0
   LHFCALC = .TRUE.
   GGA = B3
   AEXX = 0.20
   AGGAX = 0.72
   AGGAC = 0.81
   ALDAC = 0.19
   ALGO = Damped
   TIME = 0.4
   LDIPOL = .TRUE.
   IDIPOL = 4
   DIPOL = 0.5 0.5 0.5
   LORBIT = 11
   NEDOS = 2000
   ISYM = 0
   LREAL = .FALSE.
   NCORE = 4

 POTCAR:    PAW_PBE C 08Apr2002                   
 POTCAR:    PAW_PBE H 15Jun2001                   
 POTCAR:    PAW_PBE N 08Apr2002                   
 POTCAR:    PAW_PBE C 08Apr2002                   
   VRHFIN =C: s2p2                                                                                  
   LEXCH  = PE                                                                                      
   EATOM  =   147.1560 eV,   10.8157 Ry                                                             
                                                                                                    
   TITEL  = PAW_PBE C 08Apr2002                                                                     
   LULTRA =        F    use ultrasoft PP ?                                                          
   IUNSCR =        1    unscreen: 0-lin 1-nonlin 2-no                                               
   RPACOR =    1.200    partial core radius                                                         
   POMASS =   12.011; ZVAL   =    4.000    mass and valenz                                          
   RCORE  =    1.500    outmost cutoff radius                                                       
   RWIGS  =    1.630; RWIGS  =    0.863    wigner-seitz radius (au A)                               
   ENMAX  =  400.000; ENMIN  =  300.000 eV                                                          
   ICORE  =        2    local potential                                                             
   LCOR   =        T    correct aug charges                                                         
   LPAW   =        T    paw PP                                                                      
   EAUG   =  644.873                                                                                
   DEXC   =    0.000                                                                                
   RMAX   =    1.529    core radius for proj-oper                                                   
   RAUG   =    1.300    factor for augmentation sphere                                              
   RDEP   =    1.501    radius for radial grids                                                     
   RDEPT  =    1.300    core radius for aug-charge                                                  
                                                                                                    
   Atomic configuration                                                                             
    4 entries                                                                                       
     n  l   j            E        occ.                                                              
     1  0  0.50      -273.3789   2.0000                                                             
     2  0  0.50       -13.7508   2.0000                                                             
     2  1  0.50        -5.2854   2.0000                                                             
     3  2  1.50        -5.4423   0.0000                                                             
   Description                                                                                      
     l       E           TYP  RCUT    TYP  RCUT                                                     
     0    -13.7508458     23  1.200                                                                 
     0     -8.2022199     23  1.200                                                                 
     1     -5.2854383     23  1.500                                                                 
     1     34.0145650     23  1.500                                                                 
     2     -5.4423304      7  1.500                                                                 
  local pseudopotential read in
  partial core-charges read in
  partial kinetic energy density read in
  atomic valenz-charges read in
  non local Contribution for L=           0  read in
    real space projection operators read in
  non local Contribution for L=           0  read in
    real space projection operators read in
  non local Contribution for L=           1  read in
    real space projection operators read in
  non local Contribution for L=           1  read in
    real space projection operators read in
    PAW grid and wavefunctions read in
 
   number of l-projection  operators is LMAX  =           4
   number of lm-projection operators is LMMAX =           8
 
 POTCAR:    PAW_PBE H 15Jun2001                   
   VRHFIN =H: ultrasoft test                                                                        
   LEXCH  = PE                                                                                      
   EATOM  =    12.4884 eV,    0.9179 Ry                                                             
                                                                                                    
   TITEL  = PAW_PBE H 15Jun2001                                                                     
   LULTRA =        F    use ultrasoft PP ?                                                          
   IUNSCR =        0    unscreen: 0-lin 1-nonlin 2-no                                               
   RPACOR =    0.000    partial core radius                                                         
   POMASS =    1.000; ZVAL   =    1.000    mass and valenz                                          
   RCORE  =    1.100    outmost cutoff radius                                                       
   RWIGS  =    0.700; RWIGS  =    0.370    wigner-seitz radius (au A)                               
   ENMAX  =  250.000; ENMIN  =  200.000 eV                                                          
   RCLOC  =    0.701    cutoff for local pot                                                        
   LCOR   =        T    correct aug charges                                                         
   LPAW   =        T    paw PP                                                                      
   EAUG   =  400.000                                                                                
   RMAX   =    1.123    core radius for proj-oper                                                   
   RAUG   =    1.200    factor for augmentation sphere                                              
   RDEP   =    1.112    radius for radial grids                                                     
   RDEPT  =    0.926    core radius for aug-charge                                                  
                                                                                                    
   Atomic configuration                                                                             
    2 entries                                                                                       
     n  l   j            E        occ.                                                              
     1  0  0.50        -6.4927   1.0000                                                             
     2  1  0.50        -3.4015   0.0000                                                             
   Description                                                                                      
     l       E           TYP  RCUT    TYP  RCUT                                                     
     0     -6.4927494     23  1.100                                                                 
     0      6.8029130     23  1.100                                                                 
     1     -4.0817478     23  1.100                                                                 
  local pseudopotential read in
  atomic valenz-charges read in
  non local Contribution for L=           0  read in
    real space projection operators read in
  non local Contribution for L=           0  read in
    real space projection operators read in
  non local Contribution for L=           1  read in
    real space projection operators read in
    PAW grid and wavefunctions read in
 
   number of l-projection  operators is LMAX  =           3
   number of lm-projection operators is LMMAX =           5
 
 POTCAR:    PAW_PBE N 08Apr2002                   
   VRHFIN =N: s2p3                                                                                  
   LEXCH  = PE                                                                                      
   EATOM  =   264.5486 eV,   19.4438 Ry                                                             
                                                                                                    
   TITEL  = PAW_PBE N 08Apr2002                                                                     
   LULTRA =        F    use ultrasoft PP ?                                                          
   IUNSCR =        1    unscreen: 0-lin 1-nonlin 2-no                                               
   RPACOR =    1.200    partial core radius                                                         
   POMASS =   14.001; ZVAL   =    5.000    mass and valenz                                          
   RCORE  =    1.500    outmost cutoff radius                                                       
   RWIGS  =    1.400; RWIGS  =    0.741    wigner-seitz radius (au A)                               
   ENMAX  =  400.000; ENMIN  =  300.000 eV                                                          
   ICORE  =        2    local potential                                                             
   LCOR   =        T    correct aug charges                                                         
   LPAW   =        T    paw PP                                                                      
   EAUG   =  627.112                                                                                
   DEXC   =    0.000                                                                                
   RMAX   =    1.529    core radius for proj-oper                                                   
   RAUG   =    1.300    factor for augmentation sphere                                              
   RDEP   =    1.514    radius for radial grids                                                     
   RDEPT  =    1.338    core radius for aug-charge                                                  
                                                                                                    
   Atomic configuration                                                                             
    4 entries                                                                                       
     n  l   j            E        occ.                                                              
     1  0  0.50      -384.7179   2.0000                                                             
     2  0  0.50       -18.5828   2.0000                                                             
     2  1  0.50        -7.0898   3.0000                                                             
     3  2  1.50        -6.8029   0.0000                                                             
   Description                                                                                      
     l       E           TYP  RCUT    TYP  RCUT                                                     
     0    -18.5828119     23  1.200                                                                 
     0    -13.5018863     23  1.200                                                                 
     1     -7.0897853     23  1.500                                                                 
     1      9.5240782     23  1.500                                                                 
     2     -6.8029130      7  1.500                                                                 
  local pseudopotential read in
  partial core-charges read in
  partial kinetic energy density read in
  atomic valenz-charges read in
  non local Contribution for L=           0  read in
    real space projection operators read in
  non local Contribution for L=           0  read in
    real space projection operators read in
  non local Contribution for L=           1  read in
    real space projection operators read in
  non local Contribution for L=           1  read in
    real space projection operators read in
    PAW grid and wavefunctions read in
 
   number of l-projection  operators is LMAX  =           4
   number of lm-projection operators is LMMAX =           8
 
 -----------------------------------------------------------------------------
|                                                                             |
|               ----> ADVICE to this user running VASP <----                  |
|                                                                             |
|     You have a (more or less) 'large supercell' and for larger cells it     |
|     might be more efficient to use real-space projection operators.         |
|     Therefore, try LREAL= Auto in the INCAR file.                           |
|     Mind: For very accurate calculation, you might also keep the            |
|     reciprocal projection scheme (i.e. LREAL=.FALSE.).                      |
|                                                                             |
 -----------------------------------------------------------------------------

 -----------------------------------------------------------------------------
|                                                                             |
|               ----> ADVICE to this user running VASP <----                  |
|                                                                             |
|     You enforced a specific xc type in the INCAR file but a different       |
|     type was found in the POTCAR file.                                      |
|     I HOPE YOU KNOW WHAT YOU ARE DOING!                                     |
|                                                                             |
 -----------------------------------------------------------------------------

  PAW_PBE C 08Apr2002                   :
 energy of atom  1       EATOM= -147.1560
 kinetic energy error for atom=    0.0076 (will be added to EATOM!!)
  PAW_PBE H 15Jun2001                   :
 energy of atom  2       EATOM=  -12.4884
 kinetic energy error for atom=    0.0020 (will be added to EATOM!!)
  PAW_PBE N 08Apr2002                   :
 energy of atom  3       EATOM= -264.5486
 kinetic energy error for atom=    0.0138 (will be added to EATOM!!)
 
 
 POSCAR: Molecule_POSCAR_06
  positions in cartesian coordinates
  No initial velocities read in
 exchange correlation table for  LEXCH =       11
   RHO(1)=    0.500       N(1)  =     2000
   RHO(2)=  100.500       N(2)  =     4000
 


--------------------------------------------------------------------------------------------------------


 ion  position               nearest neighbor table
   1  0.317  0.486  0.503-  11 1.09   9 1.10  10 1.13   2 1.52
   2  0.381  0.516  0.529-  13 1.10  12 1.12   3 1.51   1 1.52
   3  0.437  0.488  0.486-  14 1.10  15 1.12   2 1.51   4 1.52
   4  0.505  0.514  0.508-  16 1.11  17 1.11   5 1.51   3 1.52
   5  0.554  0.481  0.460-  18 1.09  19 1.11   6 1.50   4 1.51
   6  0.625  0.501  0.474-  20 1.11   8 1.46   5 1.50   7 1.52
   7  0.646  0.481  0.544-  23 1.11  22 1.12  21 1.12   6 1.52
   8  0.636  0.572  0.464-  24 1.16   6 1.46
   9  0.317  0.431  0.506-   1 1.10
  10  0.311  0.498  0.448-   1 1.13
  11  0.273  0.504  0.530-   1 1.09
  12  0.386  0.498  0.582-   2 1.12
  13  0.379  0.570  0.525-   2 1.10
  14  0.435  0.433  0.486-   3 1.10
  15  0.429  0.508  0.435-   3 1.12
  16  0.504  0.569  0.503-   4 1.11
  17  0.516  0.501  0.561-   4 1.11
  18  0.540  0.496  0.409-   5 1.09
  19  0.550  0.426  0.468-   5 1.11
  20  0.657  0.471  0.439-   6 1.11
  21  0.697  0.457  0.543-   7 1.12
  22  0.611  0.442  0.564-   7 1.12
  23  0.651  0.525  0.576-   7 1.11
  24  0.645  0.630  0.458-   8 1.16
 

IMPORTANT INFORMATION: All symmetrisations will be switched off!
NOSYMM: (Re-)initialisation of all symmetry stuff for point group C_1.


----------------------------------------------------------------------------------------

                                     Primitive cell                                     

  volume of cell :    8000.0000

  direct lattice vectors                    reciprocal lattice vectors
    20.000000000  0.000000000  0.000000000     0.050000000  0.000000000  0.000000000
     0.000000000 20.000000000  0.000000000     0.000000000  0.050000000  0.000000000
     0.000000000  0.000000000 20.000000000     0.000000000  0.000000000  0.050000000

  length of vectors
    20.000000000 20.000000000 20.000000000     0.050000000  0.050000000  0.050000000

  position of ions in fractional coordinates (direct lattice)
     0.316571750  0.486320850  0.502753800
     0.381368900  0.515652000  0.529188550
     0.436921400  0.488006950  0.486490050
     0.505059900  0.513562000  0.507740300
     0.553862050  0.481086250  0.460093000
     0.625124750  0.500729300  0.473547750
     0.646417600  0.480915700  0.543553700
     0.635786300  0.572474150  0.464432250
     0.316815450  0.431348450  0.505737500
     0.310952400  0.498320800  0.447994100
     0.272628750  0.504446550  0.529632350
     0.385531200  0.498393250  0.582053300
     0.378577600  0.570198350  0.524763400
     0.434536800  0.433311050  0.485741100
     0.428572200  0.508361000  0.434825500
     0.503827650  0.568690450  0.503044550
     0.516036300  0.501110750  0.560626650
     0.540393550  0.495520100  0.409205850
     0.549998100  0.426201300  0.468292050
     0.656832800  0.471490250  0.438710500
     0.697282950  0.456917200  0.542964200
     0.611434250  0.442289850  0.564009900
     0.650871150  0.525124500  0.576456150
     0.644596250  0.629528950  0.458143550

  ion indices of the primitive-cell ions
   primitive index   ion index
                 1           1
                 2           2
                 3           3
                 4           4
                 5           5
                 6           6
                 7           7
                 8           8
                 9           9
                10          10
                11          11
                12          12
                13          13
                14          14
                15          15
                16          16
                17          17
                18          18
                19          19
                20          20
                21          21
                22          22
                23          23
                24          24

----------------------------------------------------------------------------------------

 
 
 KPOINTS: Gamma-point only                        

Automatic generation of k-mesh.
 Grid dimensions read from file:
 generate k-points for:    1    1    1

 Generating k-lattice:

  Cartesian coordinates                     Fractional coordinates (reciprocal lattice)
     0.050000000  0.000000000  0.000000000     1.000000000  0.000000000  0.000000000
     0.000000000  0.050000000  0.000000000     0.000000000  1.000000000  0.000000000
     0.000000000  0.000000000  0.050000000     0.000000000  0.000000000  1.000000000

  Length of vectors
     0.050000000  0.050000000  0.050000000

  Shift w.r.t. Gamma in fractional coordinates (k-lattice)
     0.000000000  0.000000000  0.000000000

 
 Subroutine IBZKPT returns following result:
 ===========================================
 
 Found      1 irreducible k-points:
 
 Following reciprocal coordinates:
            Coordinates               Weight
  0.000000  0.000000  0.000000      1.000000
 
 Following cartesian coordinates:
            Coordinates               Weight
  0.000000  0.000000  0.000000      1.000000
 
 
 Subroutine IBZKPT_HF returns following result:
 ==============================================
 
 Found      1 k-points in 1st BZ
 the following      1 k-points will be used (e.g. in the exchange kernel)
 Following reciprocal coordinates:   # in IRBZ
  0.000000  0.000000  0.000000    1.00000000   1 t-inv F


--------------------------------------------------------------------------------------------------------




 Dimension of arrays:
   k-points           NKPTS =      1   k-points in BZ     NKDIM =      1   number of bands    NBANDS=     40
   number of dos      NEDOS =   2000   number of ions     NIONS =     24
   non local maximal  LDIM  =      4   non local SUM 2l+1 LMDIM =      8
   total plane-waves  NPLWV = ******
   max r-space proj   IRMAX =      1   max aug-charges    IRDMAX=   5390
   dimension x,y,z NGX =   150 NGY =  150 NGZ =  150
   dimension x,y,z NGXF=   300 NGYF=  300 NGZF=  300
   support grid    NGXF=   300 NGYF=  300 NGZF=  300
   ions per type =               8  15   1
   NGX,Y,Z   is equivalent  to a cutoff of  12.47, 12.47, 12.47 a.u.
   NGXF,Y,Z  is equivalent  to a cutoff of  24.94, 24.94, 24.94 a.u.

 SYSTEM =  QM9_Benchmark_B3LYP_Gap_Dipole          
 POSCAR =  Molecule_POSCAR_06                      

 Startparameter for this run:
   NWRITE =      2    write-flag & timer
   PREC   = accura    normal or accurate (medium, high low for compatibility)
   ISTART =      0    job   : 0-new  1-cont  2-samecut
   ICHARG =      2    charge: 1-file 2-atom 10-const
   ISPIN  =      1    spin polarized calculation?
   LNONCOLLINEAR =      F non collinear calculations
   LSORBIT =      F    spin-orbit coupling
   INIWAV =      1    electr: 0-lowe 1-rand  2-diag
   LASPH  =      F    aspherical Exc in radial PAW
 Electronic Relaxation 1
   ENCUT  =  500.0 eV  36.75 Ry    6.06 a.u.  36.46 36.46 36.46*2*pi/ulx,y,z
   ENINI  =  500.0     initial cutoff
   ENAUG  =  644.9 eV  augmentation charge cutoff
   NELM   =    100;   NELMIN=  2; NELMDL= -5     # of ELM steps 
   EDIFF  = 0.1E-05   stopping-criterion for ELM
   LREAL  =      F    real-space projection
   NLSPLINE    = F    spline interpolate recip. space projectors
   LCOMPAT=      F    compatible to vasp.4.4
   GGA_COMPAT  = T    GGA compatible to vasp.4.4-vasp.4.6
   LMAXPAW     = -100 max onsite density
   LMAXMIX     =    2 max onsite mixed and CHGCAR
   VOSKOWN=      0    Vosko Wilk Nusair interpolation
   ROPT   =    0.00000   0.00000   0.00000
 Ionic relaxation
   EDIFFG = 0.1E-04   stopping-criterion for IOM
   NSW    =      0    number of steps for IOM
   NBLOCK =      1;   KBLOCK =      1    inner block; outer block 
   IBRION =     -1    ionic relax: 0-MD 1-quasi-New 2-CG
   NFREE  =      0    steps in history (QN), initial steepest desc. (CG)
   ISIF   =      0    stress and relaxation
   IWAVPR =     10    prediction:  0-non 1-charg 2-wave 3-comb
   ISYM   =      0    0-nonsym 1-usesym 2-fastsym
   LCORR  =      T    Harris-Foulkes like correction to forces

   POTIM  = 0.5000    time-step for ionic-motion
   TEIN   =    0.0    initial temperature
   TEBEG  =    0.0;   TEEND  =   0.0 temperature during run
   SMASS  =  -3.00    Nose mass-parameter (am)
   estimated Nose-frequenzy (Omega)   =  0.10E-29 period in steps = 0.13E+47 mass=  -0.914E-26a.u.
   SCALEE = 1.0000    scale energy and forces
   NPACO  =    256;   APACO  = 10.0  distance and # of slots for P.C.
   PSTRESS=    0.0 pullay stress

  Mass of Ions in am
   POMASS =  12.01  1.00 14.00
  Ionic Valenz
   ZVAL   =   4.00  1.00  5.00
  Atomic Wigner-Seitz radii
   RWIGS  =  -1.00 -1.00 -1.00
  virtual crystal weights 
   VCA    =   1.00  1.00  1.00
   NELECT =      52.0000    total number of electrons
   NUPDOWN=      -1.0000    fix difference up-down

 DOS related values:
   EMIN   =  10.00;   EMAX   =-10.00  energy-range for DOS
   EFERMI =   0.00;   METHOD = LEGACY      
   ISMEAR =     0;   SIGMA  =   0.05  broadening in eV -4-tet -1-fermi 0-gaus

 Electronic relaxation 2 (details)
   IALGO  =     53    algorithm
   LDIAG  =      T    sub-space diagonalisation (order eigenvalues)
   LSUBROT=      F    optimize rotation matrix (better conditioning)
   TURBO    =      0    0=normal 1=particle mesh
   IRESTART =      0    0=no restart 2=restart with 2 vectors
   NREBOOT  =      0    no. of reboots
   NMIN     =      0    reboot dimension
   EREF     =   0.00    reference energy to select bands
   IMIX   =      4    mixing-type and parameters
     AMIX     =   0.40;   BMIX     =  1.00
     AMIX_MAG =   1.60;   BMIX_MAG =  1.00
     AMIN     =   0.10
     WC   =   100.;   INIMIX=   1;  MIXPRE=   1;  MAXMIX= -45

 Intra band minimization:
   WEIMIN = 0.0000     energy-eigenvalue tresh-hold
   EBREAK =  0.62E-08  absolut break condition
   DEPER  =   0.30     relativ break condition  

   TIME   =   0.40     timestep for ELM

  volume/ion in A,a.u.               =     333.33      2249.44
  Fermi-wavevector in a.u.,A,eV,Ry     =   0.305524  0.577357  1.270038  0.093345
  Thomas-Fermi vector in A             =   1.178628
 
 Write flags
   LWAVE        =      T    write WAVECAR
   LDOWNSAMPLE  =      F    k-point downsampling of WAVECAR
   LCHARG       =      T    write CHGCAR
   LVTOT        =      F    write LOCPOT, total local potential
   LVHAR        =      F    write LOCPOT, Hartree potential only
   LELF         =      F    write electronic localiz. function (ELF)
   LORBIT       =     11    0 simple, 1 ext, 2 COOP (PROOUT), +10 PAW based schemes


 Dipole corrections
   LMONO  =      F    monopole corrections only (constant potential shift)
   LDIPOL =      T    correct potential (dipole corrections)
   IDIPOL =      4    1-x, 2-y, 3-z, 4-all directions 
   EPSILON=  1.0000000 bulk dielectric constant

 Exchange correlation treatment:
   GGA     =    B3    GGA type
   LEXCH   =    11    internal setting for exchange type
   LIBXC   =     F    Libxc                    
   VOSKOWN =     0    Vosko Wilk Nusair interpolation
   EXXOEP  =     0    0=HF, 1=EXX-LHF (local Hartree Fock) 2=EXX OEP
   LHFCALC =     T    Hartree Fock is set to
   LSYMGRAD=     F    symmetrize gradient (conserves proper symmetry)
   PRECFOCK=normal    Normal, Fast or Accurate (Low or Medium for compatibility)
   LRHFCALC=     F    long range Hartree Fock
   LRSCOR  =     F    long range correlation only (use DFT for short range part)
   LTHOMAS =     F    Thomas Fermi screening in HF
   LMODELHF=     F    short range full HF, long range fraction AEXX
   FOCKCORR=     1    mode to apply convergence corrections
   LFOCKACE=     T    use Adeptively-Compressed-Exchange operator
   ENCUT4O =  -1.0   cutoff for four orbital integrals eV
   LMAXFOCK=     4    L truncation for augmentation on plane wave grid
   LMAXFOCKAE=  -1    L truncation for all-electron charge restoration on plane wave grid
   NMAXFOCKAE=   1    number of basis functions for all-electron charge restoration
   LFOCKAEDFT=     F  apply the AE augmentation even for DFT
   NKREDX  =     1    reduce k-point grid by
   NKREDY  =     1    reduce k-point grid by
   NKREDZ  =     1    reduce k-point grid by
   SHIFTRED=     F    shift reduced grid of Gamma
   HFKIDENT=     F    idential grid for each k-point
   ODDONLY =     F    use only odd q-grid points
   EVENONLY=     F    use only even q-grid points
   HFALPHA =   -1.0000 decay constant for conv. correction
   MCALPHA =    0.0000 extent of test-charge in conv. correction in multipole expansion
   AEXX    =    0.2000 exact exchange contribution
   HFSCREEN=    0.0000 screening length (either q_TF or 0.3 A-1)
   HFSCREENC=   0.0000 screening length for correlation (either q_TF or 0.3 A-1)
   HFRCUT  =    0.0000 spherical cutoff for potential kernel
   ALDAX   =    0.8000 LDA exchange part
   AGGAX   =    0.7200 GGA exchange part
   ALDAC   =    0.1900 LDA correlation
   AGGAC   =    0.8100 GGA correlation
   ENCUTFOCK=  -1.0 apply spherical cutoff to Coloumb kernel
   NBANDSGWLOW=     1    first orbital included in HF term
   NBLOCK_FOCK=    64    blocking factor in FOCK_ACC

 Linear response parameters
   LEPSILON=     F    determine dielectric tensor
   LRPA    =     F    only Hartree local field effects (RPA)
   LNABLA  =     F    use nabla operator in PAW spheres
   LVEL    =     F    velocity operator in full k-point grid
   CSHIFT  =0.1000    complex shift for real part using Kramers Kronig
   OMEGAMAX=  -1.0    maximum frequency
   DEG_THRESHOLD= 0.2000000E-02 threshold for treating states as degnerate
   RTIME   =   -0.100 relaxation time in fs
  (WPLASMAI=    0.000 imaginary part of plasma frequency in eV, 0.658/RTIME)
   DFIELD  = 0.0000000 0.0000000 0.0000000 field for delta impulse in time
 
  Optional k-point grid parameters
   LKPOINTS_OPT  =     F    use optional k-point grid
   KPOINTS_OPT_MODE=     1    mode for optional k-point grid
 
 Orbital magnetization related:
   ORBITALMAG=     F  switch on orbital magnetization
   LCHIMAG   =     F  perturbation theory with respect to B field
   DQ        =  0.001000  dq finite difference perturbation B field
   LLRAUG    =     F  two centre corrections for induced B field
   LBONE     =     F  B-component reconstruction in AE one-centre
   LVGVCALC  =     T  calculate vGv susceptibility
   LVGVAPPL  =     F  apply vGv susceptibility instead of pGv for G=0

 Random number generation:
   RANDOM_GENERATOR = DEFAULT
   PCG_SEED         = not used


--------------------------------------------------------------------------------------------------------


 Static calculation
 charge density and potential will be updated during run
 non-spin polarized calculation
 Conjugate gradient for all bands (Freysoldt, et al. PRB 79, 241103 (2009))
 perform sub-space diagonalisation
    before iterative eigenvector-optimisation
 modified Broyden-mixing scheme, WC =      100.0
 initial mixing is a Kerker type mixing with AMIX =  0.4000 and BMIX =      1.0000
 Hartree-type preconditioning will be used
 using additional bands           14
 reciprocal scheme for non local part
 use partial core corrections
 no Harris-corrections to forces 
 use gradient corrections 
 use of overlap-Matrix (Vanderbilt PP)
 Gauss-broadening in eV      SIGMA  =   0.05


--------------------------------------------------------------------------------------------------------


  energy-cutoff  :      500.00
  volume of cell :     8000.00
      direct lattice vectors                 reciprocal lattice vectors
    20.000000000  0.000000000  0.000000000     0.050000000  0.000000000  0.000000000
     0.000000000 20.000000000  0.000000000     0.000000000  0.050000000  0.000000000
     0.000000000  0.000000000 20.000000000     0.000000000  0.000000000  0.050000000

  length of vectors
    20.000000000 20.000000000 20.000000000     0.050000000  0.050000000  0.050000000


 
 k-points in units of 2pi/SCALE and weight: Gamma-point only                        
   0.00000000  0.00000000  0.00000000       1.000
 
 k-points in reciprocal lattice and weights: Gamma-point only                        
   0.00000000  0.00000000  0.00000000       1.000
 
 position of ions in fractional coordinates (direct lattice) 
   0.31657175  0.48632085  0.50275380
   0.38136890  0.51565200  0.52918855
   0.43692140  0.48800695  0.48649005
   0.50505990  0.51356200  0.50774030
   0.55386205  0.48108625  0.46009300
   0.62512475  0.50072930  0.47354775
   0.64641760  0.48091570  0.54355370
   0.63578630  0.57247415  0.46443225
   0.31681545  0.43134845  0.50573750
   0.31095240  0.49832080  0.44799410
   0.27262875  0.50444655  0.52963235
   0.38553120  0.49839325  0.58205330
   0.37857760  0.57019835  0.52476340
   0.43453680  0.43331105  0.48574110
   0.42857220  0.50836100  0.43482550
   0.50382765  0.56869045  0.50304455
   0.51603630  0.50111075  0.56062665
   0.54039355  0.49552010  0.40920585
   0.54999810  0.42620130  0.46829205
   0.65683280  0.47149025  0.43871050
   0.69728295  0.45691720  0.54296420
   0.61143425  0.44228985  0.56400990
   0.65087115  0.52512450  0.57645615
   0.64459625  0.62952895  0.45814355
 
 position of ions in cartesian coordinates  (Angst):
   6.33143500  9.72641700 10.05507600
   7.62737800 10.31304000 10.58377100
   8.73842800  9.76013900  9.72980100
  10.10119800 10.27124000 10.15480600
  11.07724100  9.62172500  9.20186000
  12.50249500 10.01458600  9.47095500
  12.92835200  9.61831400 10.87107400
  12.71572600 11.44948300  9.28864500
   6.33630900  8.62696900 10.11475000
   6.21904800  9.96641600  8.95988200
   5.45257500 10.08893100 10.59264700
   7.71062400  9.96786500 11.64106600
   7.57155200 11.40396700 10.49526800
   8.69073600  8.66622100  9.71482200
   8.57144400 10.16722000  8.69651000
  10.07655300 11.37380900 10.06089100
  10.32072600 10.02221500 11.21253300
  10.80787100  9.91040200  8.18411700
  10.99996200  8.52402600  9.36584100
  13.13665600  9.42980500  8.77421000
  13.94565900  9.13834400 10.85928400
  12.22868500  8.84579700 11.28019800
  13.01742300 10.50249000 11.52912300
  12.89192500 12.59057900  9.16287100
 


--------------------------------------------------------------------------------------------------------


 k-point   1 :   0.0000 0.0000 0.0000  plane waves:  203269

 maximum and minimum number of plane-waves per node :     50840    50799

 maximum number of plane-waves:    203269
 maximum index in each direction: 
   IXMAX=   36   IYMAX=   36   IZMAX=   36
   IXMIN=  -36   IYMIN=  -36   IZMIN=  -36


 parallel 3D FFT for wavefunctions:
    minimum data exchange during FFTs selected (reduces bandwidth)
 parallel 3D FFT for charge:
    minimum data exchange during FFTs selected (reduces bandwidth)


 FFT grid for exact exchange (Hartree Fock) 
  NGX =112; NGY =112; NGZ =112

 
 Radii for the augmentation spheres in the non-local exchange
 for species   1 augmentation radius   0.874 (default was   0.699)
       energy cutoff for augmentation   2000.0
 for species   2 augmentation radius   0.650 (default was   0.520)
       energy cutoff for augmentation   2000.0
 for species   3 augmentation radius   0.886 (default was   0.709)
       energy cutoff for augmentation   2000.0

 real space projection operators:
  total allocation   :        522.56 KBytes
  max/ min on nodes  :        131.41        129.94

 Maximum index for augmentation-charges in exchange          132
  SETUP_FOCK is finished

 total amount of memory used by VASP MPI-rank0   239789. kBytes
=======================================================================

   base      :      30000. kBytes
   nonl-proj :      29279. kBytes
   fftplans  :      75720. kBytes
   grid      :      92179. kBytes
   one-center:         18. kBytes
   HF        :          9. kBytes
   nonlr-proj:        377. kBytes
   wavefun   :      12207. kBytes
 
     INWAV:  cpu time      0.0000: real time      0.0000
 Broyden mixing: mesh for mixing (old mesh)
   NGX = 73   NGY = 73   NGZ = 73
  (NGX  =300   NGY  =300   NGZ  =300)
  gives a total of 389017 points

 initial charge density was supplied:
 charge density of overlapping atoms calculated
 number of electron      52.0000000 magnetization 
 keeping initial charge density in first step


--------------------------------------------------------------------------------------------------------


 Maximum index for augmentation-charges          351 (set IRDMAX)


--------------------------------------------------------------------------------------------------------


    FEWALD:  cpu time      0.0005: real time      0.0005


--------------------------------------- Ionic step        1  -------------------------------------------




--------------------------------------- Iteration      1(   1)  ---------------------------------------


    POTLOK:  cpu time      0.4031: real time      0.4051
    SETDIJ:  cpu time      0.0025: real time      0.0025
    TRIAL :  cpu time      0.9499: real time      0.9569
    CORREC:  cpu time      0.0017: real time      0.0019
    --------------------------------------------
      LOOP:  cpu time      1.3614: real time      1.3815

 eigenvalue-minimisations  :    88
 total energy-change (2. order) : 0.6990659E+03  (-0.6718089E+03)
 number of electron      52.0000000 magnetization 
 augmentation part       52.0000000 magnetization 

 DIPCOR: dipole corrections for dipol
 direction  1 min pos     1, direction  2 min pos     1, direction  3 min pos     1,
 dipolmoment          -0.000047     -0.000039      0.000010 electrons x Angstroem
 Tr[quadrupol]        44.161342

 energy correction for charged system         0.000000 eV
 dipol+quadrupol energy correction           -0.000000 eV
 added-field ion interaction          0.000010 eV  (added to PSCEN)


 Free energy of the ion-electron system (eV)
  ---------------------------------------------------
  alpha Z        PSCENC =         1.44551381
  Ewald energy   TEWEN  =      3842.37979998
  -Hartree energ DENC   =     -4892.52389494
  -exchange      EXHF   =         0.00000000
  -V(xc)+E(xc)   XCENC  =       159.42491824
  PAW double counting   =      1105.11951419    -1276.24992156
  entropy T*S    EENTRO =        -0.00093673
  eigenvalues    EBANDS =       146.69355002
  atomic energy  EATOM  =      1612.77738675
  ---------------------------------------------------
  free energy    TOTEN  =       699.06592976 eV

  energy without entropy =      699.06686649  energy(sigma->0) =      699.06639812
  exchange ACFDT corr.  =         0.00000000  see jH, gK, PRB 81, 115126


--------------------------------------------------------------------------------------------------------




--------------------------------------- Iteration      1(   2)  ---------------------------------------


    TRIAL :  cpu time      1.4895: real time      1.4995
    CORREC:  cpu time      0.0009: real time      0.0011
    --------------------------------------------
      LOOP:  cpu time      1.4930: real time      1.5056

 eigenvalue-minimisations  :   160
 total energy-change (2. order) :-0.2316633E+03  (-0.2197345E+03)
 number of electron      52.0000000 magnetization 
 augmentation part       52.0000000 magnetization 

 DIPCOR: dipole corrections for dipol
 direction  1 min pos     1, direction  2 min pos     1, direction  3 min pos     1,
 dipolmoment          -0.000047     -0.000039      0.000010 electrons x Angstroem
 Tr[quadrupol]        44.161342

 energy correction for charged system         0.000000 eV
 dipol+quadrupol energy correction           -0.000000 eV
 added-field ion interaction          0.000010 eV  (added to PSCEN)


 Free energy of the ion-electron system (eV)
  ---------------------------------------------------
  alpha Z        PSCENC =         1.44551381
  Ewald energy   TEWEN  =      3842.37979998
  -Hartree energ DENC   =     -4892.52389494
  -exchange      EXHF   =         0.00000000
  -V(xc)+E(xc)   XCENC  =       159.42491824
  PAW double counting   =      1105.11951419    -1276.24992156
  entropy T*S    EENTRO =        -0.00620296
  eigenvalues    EBANDS =       -84.96448756
  atomic energy  EATOM  =      1612.77738675
  ---------------------------------------------------
  free energy    TOTEN  =       467.40262595 eV

  energy without entropy =      467.40882891  energy(sigma->0) =      467.40572743
  exchange ACFDT corr.  =         0.00000000  see jH, gK, PRB 81, 115126


--------------------------------------------------------------------------------------------------------




--------------------------------------- Iteration      1(   3)  ---------------------------------------


    TRIAL :  cpu time      1.4875: real time      1.4983
    CORREC:  cpu time      0.0010: real time      0.0012
    --------------------------------------------
      LOOP:  cpu time      1.4887: real time      1.4996

 eigenvalue-minimisations  :   160
 total energy-change (2. order) :-0.2982444E+03  (-0.2799370E+03)
 number of electron      52.0000000 magnetization 
 augmentation part       52.0000000 magnetization 

 DIPCOR: dipole corrections for dipol
 direction  1 min pos     1, direction  2 min pos     1, direction  3 min pos     1,
 dipolmoment          -0.000047     -0.000039      0.000010 electrons x Angstroem
 Tr[quadrupol]        44.161342

 energy correction for charged system         0.000000 eV
 dipol+quadrupol energy correction           -0.000000 eV
 added-field ion interaction          0.000010 eV  (added to PSCEN)


 Free energy of the ion-electron system (eV)
  ---------------------------------------------------
  alpha Z        PSCENC =         1.44551381
  Ewald energy   TEWEN  =      3842.37979998
  -Hartree energ DENC   =     -4892.52389494
  -exchange      EXHF   =         0.00000000
  -V(xc)+E(xc)   XCENC  =       159.42491824
  PAW double counting   =      1105.11951419    -1276.24992156
  entropy T*S    EENTRO =        -0.00015410
  eigenvalues    EBANDS =      -383.21493271
  atomic energy  EATOM  =      1612.77738675
  ---------------------------------------------------
  free energy    TOTEN  =       169.15822966 eV

  energy without entropy =      169.15838376  energy(sigma->0) =      169.15830671
  exchange ACFDT corr.  =         0.00000000  see jH, gK, PRB 81, 115126


--------------------------------------------------------------------------------------------------------




--------------------------------------- Iteration      1(   4)  ---------------------------------------


    TRIAL :  cpu time      1.4873: real time      1.4982
    CORREC:  cpu time      0.0010: real time      0.0011
    --------------------------------------------
      LOOP:  cpu time      1.4884: real time      1.4994

 eigenvalue-minimisations  :   160
 total energy-change (2. order) :-0.2436279E+03  (-0.2294712E+03)
 number of electron      52.0000000 magnetization 
 augmentation part       52.0000000 magnetization 

 DIPCOR: dipole corrections for dipol
 direction  1 min pos     1, direction  2 min pos     1, direction  3 min pos     1,
 dipolmoment          -0.000047     -0.000039      0.000010 electrons x Angstroem
 Tr[quadrupol]        44.161342

 energy correction for charged system         0.000000 eV
 dipol+quadrupol energy correction           -0.000000 eV
 added-field ion interaction          0.000010 eV  (added to PSCEN)


 Free energy of the ion-electron system (eV)
  ---------------------------------------------------
  alpha Z        PSCENC =         1.44551381
  Ewald energy   TEWEN  =      3842.37979998
  -Hartree energ DENC   =     -4892.52389494
  -exchange      EXHF   =         0.00000000
  -V(xc)+E(xc)   XCENC  =       159.42491824
  PAW double counting   =      1105.11951419    -1276.24992156
  entropy T*S    EENTRO =        -0.00016433
  eigenvalues    EBANDS =      -626.84279475
  atomic energy  EATOM  =      1612.77738675
  ---------------------------------------------------
  free energy    TOTEN  =       -74.46964261 eV

  energy without entropy =      -74.46947827  energy(sigma->0) =      -74.46956044
  exchange ACFDT corr.  =         0.00000000  see jH, gK, PRB 81, 115126


--------------------------------------------------------------------------------------------------------




--------------------------------------- Iteration      1(   5)  ---------------------------------------


    POTLOK:  cpu time      0.8095: real time      0.8129
    SETDIJ:  cpu time      0.0024: real time      0.0024
    TRIAL :  cpu time      6.4972: real time      6.5370
    CORREC:  cpu time      0.0003: real time      0.0003
    CHARGE:  cpu time      0.1130: real time      0.1140
    --------------------------------------------
      LOOP:  cpu time      7.4225: real time      7.4667

 eigenvalue-minimisations  :   160
 total energy-change (2. order) : 0.4921264E+01  (-0.1634522E+03)
 number of electron      52.0000003 magnetization 
 augmentation part        1.3882928 magnetization 

 DIPCOR: dipole corrections for dipol
 direction  1 min pos     1, direction  2 min pos     1, direction  3 min pos     1,
 dipolmoment          -0.000047     -0.000039      0.000010 electrons x Angstroem
 Tr[quadrupol]        44.161342

 energy correction for charged system         0.000000 eV
 dipol+quadrupol energy correction           -0.000000 eV
 added-field ion interaction          0.000010 eV  (added to PSCEN)


 Free energy of the ion-electron system (eV)
  ---------------------------------------------------
  alpha Z        PSCENC =         1.44551381
  Ewald energy   TEWEN  =      3842.37979998
  -Hartree energ DENC   =     -4892.52389494
  -exchange      EXHF   =        72.41876840
  -V(xc)+E(xc)   XCENC  =       127.17511200
  PAW double counting   =      1130.20103026    -1137.65552453
  entropy T*S    EENTRO =        -0.00000000
  eigenvalues    EBANDS =      -825.76657020
  atomic energy  EATOM  =      1612.77738675
  ---------------------------------------------------
  free energy    TOTEN  =       -69.54837849 eV

  energy without entropy =      -69.54837849  energy(sigma->0) =      -69.54837849
  exchange ACFDT corr.  =        -0.00026937  see jH, gK, PRB 81, 115126


--------------------------------------------------------------------------------------------------------




--------------------------------------- Iteration      1(   6)  ---------------------------------------


    POTLOK:  cpu time      1.5590: real time      1.5642
    SETDIJ:  cpu time      0.0030: real time      0.0030
    TRIAL :  cpu time      5.1650: real time      5.1961
    CORREC:  cpu time      0.0002: real time      0.0002
    CHARGE:  cpu time      0.1106: real time      0.1115
    --------------------------------------------
      LOOP:  cpu time      6.8380: real time      6.8753

 eigenvalue-minimisations  :     0
 total energy-change (2. order) : 0.9853609E+01  (-0.1972571E+03)
 number of electron      52.0000003 magnetization 
 augmentation part        1.3547157 magnetization 

 DIPCOR: dipole corrections for dipol
 direction  1 min pos     1, direction  2 min pos     1, direction  3 min pos     1,
 dipolmoment          -1.228967      0.054836      0.715500 electrons x Angstroem
 Tr[quadrupol]       351.430055

 energy correction for charged system         0.000000 eV
 dipol+quadrupol energy correction           -0.007635 eV
 added-field ion interaction          0.186646 eV  (added to PSCEN)


 Free energy of the ion-electron system (eV)
  ---------------------------------------------------
  alpha Z        PSCENC =         1.62451423
  Ewald energy   TEWEN  =      3842.37979998
  -Hartree energ DENC   =     -4584.91887521
  -exchange      EXHF   =        99.85578473
  -V(xc)+E(xc)   XCENC  =       131.21718877
  PAW double counting   =      3817.87617362    -3827.59063246
  entropy T*S    EENTRO =        -0.00000000
  eigenvalues    EBANDS =     -1152.91611037
  atomic energy  EATOM  =      1612.77738675
  ---------------------------------------------------
  free energy    TOTEN  =       -59.69476996 eV

  energy without entropy =      -59.69476996  energy(sigma->0) =      -59.69476996
  exchange ACFDT corr.  =        -0.00000000  see jH, gK, PRB 81, 115126


--------------------------------------------------------------------------------------------------------




--------------------------------------- Iteration      1(   7)  ---------------------------------------


    POTLOK:  cpu time      0.8643: real time      0.8680
    SETDIJ:  cpu time      0.0039: real time      0.0039
    TRIAL :  cpu time      5.1669: real time      5.1987
    CORREC:  cpu time      0.0003: real time      0.0003
    CHARGE:  cpu time      0.1104: real time      0.1112
    --------------------------------------------
      LOOP:  cpu time      6.1460: real time      6.1824

 eigenvalue-minimisations  :     0
 total energy-change (2. order) :-0.7780429E+02  (-0.2158269E+02)
 number of electron      52.0000003 magnetization 
 augmentation part        1.2240685 magnetization 

 DIPCOR: dipole corrections for dipol
 direction  1 min pos     1, direction  2 min pos     1, direction  3 min pos     1,
 dipolmoment           0.190840      1.169834     -0.245196 electrons x Angstroem
 Tr[quadrupol]        69.507927

 energy correction for charged system         0.000000 eV
 dipol+quadrupol energy correction           -0.005524 eV
 added-field ion interaction         -0.147043 eV  (added to PSCEN)


 Free energy of the ion-electron system (eV)
  ---------------------------------------------------
  alpha Z        PSCENC =         1.29293663
  Ewald energy   TEWEN  =      3842.37979998
  -Hartree energ DENC   =     -5123.00919725
  -exchange      EXHF   =       107.20652870
  -V(xc)+E(xc)   XCENC  =       137.25849346
  PAW double counting   =      4111.08515258    -4120.39969557
  entropy T*S    EENTRO =        -0.00000000
  eigenvalues    EBANDS =      -706.09046803
  atomic energy  EATOM  =      1612.77738675
  ---------------------------------------------------
  free energy    TOTEN  =      -137.49906275 eV

  energy without entropy =     -137.49906275  energy(sigma->0) =     -137.49906275
  exchange ACFDT corr.  =        -0.00000000  see jH, gK, PRB 81, 115126


--------------------------------------------------------------------------------------------------------




--------------------------------------- Iteration      1(   8)  ---------------------------------------


    POTLOK:  cpu time      0.8622: real time      0.8656
    SETDIJ:  cpu time      0.0025: real time      0.0025
    TRIAL :  cpu time      5.1697: real time      5.1991
    CORREC:  cpu time      0.0003: real time      0.0003
    CHARGE:  cpu time      0.1115: real time      0.1125
    --------------------------------------------
      LOOP:  cpu time      6.1465: real time      6.1803

 eigenvalue-minimisations  :     0
 total energy-change (2. order) :-0.6972370E+01  (-0.1432953E+02)
 number of electron      52.0000003 magnetization 
 augmentation part        1.2411933 magnetization 

 DIPCOR: dipole corrections for dipol
 direction  1 min pos     1, direction  2 min pos     1, direction  3 min pos     1,
 dipolmoment          -0.087559      0.852378     -0.078285 electrons x Angstroem
 Tr[quadrupol]        83.577308

 energy correction for charged system         0.000000 eV
 dipol+quadrupol energy correction           -0.002791 eV
 added-field ion interaction         -0.073018 eV  (added to PSCEN)


 Free energy of the ion-electron system (eV)
  ---------------------------------------------------
  alpha Z        PSCENC =         1.36969388
  Ewald energy   TEWEN  =      3842.37979998
  -Hartree energ DENC   =     -5008.32851162
  -exchange      EXHF   =       104.65912788
  -V(xc)+E(xc)   XCENC  =       133.89844900
  PAW double counting   =      3983.86980223    -3992.47058525
  entropy T*S    EENTRO =        -0.00000000
  eigenvalues    EBANDS =      -822.62659600
  atomic energy  EATOM  =      1612.77738675
  ---------------------------------------------------
  free energy    TOTEN  =      -144.47143314 eV

  energy without entropy =     -144.47143314  energy(sigma->0) =     -144.47143314
  exchange ACFDT corr.  =        -0.00000000  see jH, gK, PRB 81, 115126


--------------------------------------------------------------------------------------------------------




--------------------------------------- Iteration      1(   9)  ---------------------------------------


    POTLOK:  cpu time      0.8564: real time      0.8596
    SETDIJ:  cpu time      0.0034: real time      0.0034
    TRIAL :  cpu time      5.1813: real time      5.2106
    CORREC:  cpu time      0.0002: real time      0.0002
    CHARGE:  cpu time      0.1107: real time      0.1116
    --------------------------------------------
      LOOP:  cpu time      6.1523: real time      6.1866

 eigenvalue-minimisations  :     0
 total energy-change (2. order) :-0.7308140E+01  (-0.3905301E+01)
 number of electron      52.0000003 magnetization 
 augmentation part        1.2708101 magnetization 

 DIPCOR: dipole corrections for dipol
 direction  1 min pos     1, direction  2 min pos     1, direction  3 min pos     1,
 dipolmoment           0.241058      0.810358     -0.181280 electrons x Angstroem
 Tr[quadrupol]        43.175382

 energy correction for charged system         0.000000 eV
 dipol+quadrupol energy correction           -0.002819 eV
 added-field ion interaction         -0.116786 eV  (added to PSCEN)


 Free energy of the ion-electron system (eV)
  ---------------------------------------------------
  alpha Z        PSCENC =         1.32589889
  Ewald energy   TEWEN  =      3842.37979998
  -Hartree energ DENC   =     -5114.80802006
  -exchange      EXHF   =       107.07755467
  -V(xc)+E(xc)   XCENC  =       136.36651946
  PAW double counting   =      4014.38570630    -4023.03478780
  entropy T*S    EENTRO =        -0.00000000
  eigenvalues    EBANDS =      -728.24963132
  atomic energy  EATOM  =      1612.77738675
  ---------------------------------------------------
  free energy    TOTEN  =      -151.77957313 eV

  energy without entropy =     -151.77957313  energy(sigma->0) =     -151.77957313
  exchange ACFDT corr.  =        -0.00000000  see jH, gK, PRB 81, 115126


--------------------------------------------------------------------------------------------------------




--------------------------------------- Iteration      1(  10)  ---------------------------------------


    POTLOK:  cpu time      0.8554: real time      0.8586
    SETDIJ:  cpu time      0.0057: real time      0.0057
    TRIAL :  cpu time      5.1791: real time      5.2082
    CORREC:  cpu time      0.0004: real time      0.0004
    CHARGE:  cpu time      0.1100: real time      0.1114
    --------------------------------------------
      LOOP:  cpu time      6.1510: real time      6.1847

 eigenvalue-minimisations  :     0
 total energy-change (2. order) :-0.1674514E+01  (-0.1397447E+01)
 number of electron      52.0000003 magnetization 
 augmentation part        1.2843283 magnetization 

 DIPCOR: dipole corrections for dipol
 direction  1 min pos     1, direction  2 min pos     1, direction  3 min pos     1,
 dipolmoment           0.255717      0.828086     -0.159836 electrons x Angstroem
 Tr[quadrupol]        35.498056

 energy correction for charged system         0.000000 eV
 dipol+quadrupol energy correction           -0.002928 eV
 added-field ion interaction         -0.119576 eV  (added to PSCEN)


 Free energy of the ion-electron system (eV)
  ---------------------------------------------------
  alpha Z        PSCENC =         1.32299953
  Ewald energy   TEWEN  =      3842.37979998
  -Hartree energ DENC   =     -5152.88388530
  -exchange      EXHF   =       108.32230450
  -V(xc)+E(xc)   XCENC  =       137.78473319
  PAW double counting   =      4004.64429216    -4013.41599290
  entropy T*S    EENTRO =        -0.00000000
  eigenvalues    EBANDS =      -694.38572455
  atomic energy  EATOM  =      1612.77738675
  ---------------------------------------------------
  free energy    TOTEN  =      -153.45408663 eV

  energy without entropy =     -153.45408663  energy(sigma->0) =     -153.45408663
  exchange ACFDT corr.  =        -0.00000000  see jH, gK, PRB 81, 115126


--------------------------------------------------------------------------------------------------------




--------------------------------------- Iteration      1(  11)  ---------------------------------------


    POTLOK:  cpu time      0.8572: real time      0.8641
    SETDIJ:  cpu time      0.0029: real time      0.0029
    TRIAL :  cpu time      5.1531: real time      5.1832
    CORREC:  cpu time      0.0003: real time      0.0003
    CHARGE:  cpu time      0.1105: real time      0.1113
    --------------------------------------------
      LOOP:  cpu time      6.1242: real time      6.1620

 eigenvalue-minimisations  :     0
 total energy-change (2. order) :-0.8375672E+00  (-0.8609193E+00)
 number of electron      52.0000003 magnetization 
 augmentation part        1.2875744 magnetization 

 DIPCOR: dipole corrections for dipol
 direction  1 min pos     1, direction  2 min pos     1, direction  3 min pos     1,
 dipolmoment           0.229265      0.835431     -0.143871 electrons x Angstroem
 Tr[quadrupol]        34.605317

 energy correction for charged system         0.000000 eV
 dipol+quadrupol energy correction           -0.002908 eV
 added-field ion interaction         -0.116127 eV  (added to PSCEN)


 Free energy of the ion-electron system (eV)
  ---------------------------------------------------
  alpha Z        PSCENC =         1.32646897
  Ewald energy   TEWEN  =      3842.37979998
  -Hartree energ DENC   =     -5152.47387777
  -exchange      EXHF   =       108.45195101
  -V(xc)+E(xc)   XCENC  =       137.91814404
  PAW double counting   =      3971.35220824    -3980.16675883
  entropy T*S    EENTRO =        -0.00000000
  eigenvalues    EBANDS =      -695.85697619
  atomic energy  EATOM  =      1612.77738675
  ---------------------------------------------------
  free energy    TOTEN  =      -154.29165379 eV

  energy without entropy =     -154.29165379  energy(sigma->0) =     -154.29165379
  exchange ACFDT corr.  =        -0.00000000  see jH, gK, PRB 81, 115126


--------------------------------------------------------------------------------------------------------




--------------------------------------- Iteration      1(  12)  ---------------------------------------


    POTLOK:  cpu time      0.8571: real time      0.8605
    SETDIJ:  cpu time      0.0049: real time      0.0049
    TRIAL :  cpu time      5.1848: real time      5.2244
    CORREC:  cpu time      0.0002: real time      0.0002
    CHARGE:  cpu time      0.1104: real time      0.1112
    --------------------------------------------
      LOOP:  cpu time      6.1577: real time      6.2015

 eigenvalue-minimisations  :     0
 total energy-change (2. order) :-0.5250040E+00  (-0.2849020E+00)
 number of electron      52.0000003 magnetization 
 augmentation part        1.2887886 magnetization 

 DIPCOR: dipole corrections for dipol
 direction  1 min pos     1, direction  2 min pos     1, direction  3 min pos     1,
 dipolmoment           0.219924      0.845492     -0.149327 electrons x Angstroem
 Tr[quadrupol]        33.160931

 energy correction for charged system         0.000000 eV
 dipol+quadrupol energy correction           -0.002961 eV
 added-field ion interaction         -0.116064 eV  (added to PSCEN)


 Free energy of the ion-electron system (eV)
  ---------------------------------------------------
  alpha Z        PSCENC =         1.32647756
  Ewald energy   TEWEN  =      3842.37979998
  -Hartree energ DENC   =     -5146.74970313
  -exchange      EXHF   =       108.30285188
  -V(xc)+E(xc)   XCENC  =       137.71715335
  PAW double counting   =      3943.78482301    -3952.60311498
  entropy T*S    EENTRO =        -0.00000000
  eigenvalues    EBANDS =      -701.75233217
  atomic energy  EATOM  =      1612.77738675
  ---------------------------------------------------
  free energy    TOTEN  =      -154.81665775 eV

  energy without entropy =     -154.81665775  energy(sigma->0) =     -154.81665775
  exchange ACFDT corr.  =        -0.00000000  see jH, gK, PRB 81, 115126


--------------------------------------------------------------------------------------------------------




--------------------------------------- Iteration      1(  13)  ---------------------------------------


    POTLOK:  cpu time      0.8565: real time      0.8597
    SETDIJ:  cpu time      0.0050: real time      0.0050
    TRIAL :  cpu time      5.1641: real time      5.1937
    CORREC:  cpu time      0.0003: real time      0.0003
    CHARGE:  cpu time      0.1102: real time      0.1112
    --------------------------------------------
      LOOP:  cpu time      6.1368: real time      6.1723

 eigenvalue-minimisations  :     0
 total energy-change (2. order) :-0.1526017E+00  (-0.8148136E-01)
 number of electron      52.0000003 magnetization 
 augmentation part        1.2900756 magnetization 

 DIPCOR: dipole corrections for dipol
 direction  1 min pos     1, direction  2 min pos     1, direction  3 min pos     1,
 dipolmoment           0.215365      0.843133     -0.153969 electrons x Angstroem
 Tr[quadrupol]        32.597770

 energy correction for charged system         0.000000 eV
 dipol+quadrupol energy correction           -0.002944 eV
 added-field ion interaction         -0.115418 eV  (added to PSCEN)


 Free energy of the ion-electron system (eV)
  ---------------------------------------------------
  alpha Z        PSCENC =         1.32714064
  Ewald energy   TEWEN  =      3842.37979998
  -Hartree energ DENC   =     -5145.62995433
  -exchange      EXHF   =       108.26025695
  -V(xc)+E(xc)   XCENC  =       137.66216313
  PAW double counting   =      3933.11377606    -3941.94075718
  entropy T*S    EENTRO =        -0.00000000
  eigenvalues    EBANDS =      -702.91907141
  atomic energy  EATOM  =      1612.77738675
  ---------------------------------------------------
  free energy    TOTEN  =      -154.96925940 eV

  energy without entropy =     -154.96925940  energy(sigma->0) =     -154.96925940
  exchange ACFDT corr.  =        -0.00000000  see jH, gK, PRB 81, 115126


--------------------------------------------------------------------------------------------------------




--------------------------------------- Iteration      1(  14)  ---------------------------------------


    POTLOK:  cpu time      0.8585: real time      0.8616
    SETDIJ:  cpu time      0.0024: real time      0.0025
    TRIAL :  cpu time      5.1540: real time      5.1833
    CORREC:  cpu time      0.0002: real time      0.0002
    CHARGE:  cpu time      0.1103: real time      0.1112
    --------------------------------------------
      LOOP:  cpu time      6.1258: real time      6.1590

 eigenvalue-minimisations  :     0
 total energy-change (2. order) :-0.4541674E-01  (-0.4093016E-01)
 number of electron      52.0000003 magnetization 
 augmentation part        1.2905718 magnetization 

 DIPCOR: dipole corrections for dipol
 direction  1 min pos     1, direction  2 min pos     1, direction  3 min pos     1,
 dipolmoment           0.214986      0.831592     -0.154665 electrons x Angstroem
 Tr[quadrupol]        32.329551

 energy correction for charged system         0.000000 eV
 dipol+quadrupol energy correction           -0.002872 eV
 added-field ion interaction         -0.114291 eV  (added to PSCEN)


 Free energy of the ion-electron system (eV)
  ---------------------------------------------------
  alpha Z        PSCENC =         1.32834098
  Ewald energy   TEWEN  =      3842.37979998
  -Hartree energ DENC   =     -5147.81114548
  -exchange      EXHF   =       108.30623622
  -V(xc)+E(xc)   XCENC  =       137.71864039
  PAW double counting   =      3933.10978532    -3941.94985206
  entropy T*S    EENTRO =        -0.00000000
  eigenvalues    EBANDS =      -700.87386825
  atomic energy  EATOM  =      1612.77738675
  ---------------------------------------------------
  free energy    TOTEN  =      -155.01467615 eV

  energy without entropy =     -155.01467615  energy(sigma->0) =     -155.01467615
  exchange ACFDT corr.  =        -0.00000000  see jH, gK, PRB 81, 115126


--------------------------------------------------------------------------------------------------------




--------------------------------------- Iteration      1(  15)  ---------------------------------------


    POTLOK:  cpu time      0.8591: real time      0.8622
    SETDIJ:  cpu time      0.0026: real time      0.0026
    TRIAL :  cpu time      5.1676: real time      5.1967
    CORREC:  cpu time      0.0004: real time      0.0006
    CHARGE:  cpu time      0.1114: real time      0.1120
    --------------------------------------------
      LOOP:  cpu time      6.1414: real time      6.1745

 eigenvalue-minimisations  :     0
 total energy-change (2. order) :-0.2762582E-01  (-0.2382605E-01)
 number of electron      52.0000003 magnetization 
 augmentation part        1.2901295 magnetization 

 DIPCOR: dipole corrections for dipol
 direction  1 min pos     1, direction  2 min pos     1, direction  3 min pos     1,
 dipolmoment           0.215184      0.821978     -0.153411 electrons x Angstroem
 Tr[quadrupol]        32.161170

 energy correction for charged system         0.000000 eV
 dipol+quadrupol energy correction           -0.002811 eV
 added-field ion interaction         -0.113347 eV  (added to PSCEN)


 Free energy of the ion-electron system (eV)
  ---------------------------------------------------
  alpha Z        PSCENC =         1.32934549
  Ewald energy   TEWEN  =      3842.37979998
  -Hartree energ DENC   =     -5149.27640593
  -exchange      EXHF   =       108.33685098
  -V(xc)+E(xc)   XCENC  =       137.75443387
  PAW double counting   =      3935.53175846    -3944.37890930
  entropy T*S    EENTRO =        -0.00000000
  eigenvalues    EBANDS =      -699.49656227
  atomic energy  EATOM  =      1612.77738675
  ---------------------------------------------------
  free energy    TOTEN  =      -155.04230196 eV

  energy without entropy =     -155.04230196  energy(sigma->0) =     -155.04230196
  exchange ACFDT corr.  =        -0.00000000  see jH, gK, PRB 81, 115126


--------------------------------------------------------------------------------------------------------




--------------------------------------- Iteration      1(  16)  ---------------------------------------


    POTLOK:  cpu time      0.8565: real time      0.8599
    SETDIJ:  cpu time      0.0024: real time      0.0024
    TRIAL :  cpu time      5.1739: real time      5.2033
    CORREC:  cpu time      0.0002: real time      0.0002
    CHARGE:  cpu time      0.1103: real time      0.1118
    --------------------------------------------
      LOOP:  cpu time      6.1437: real time      6.1779

 eigenvalue-minimisations  :     0
 total energy-change (2. order) :-0.1628867E-01  (-0.1043978E-01)
 number of electron      52.0000003 magnetization 
 augmentation part        1.2894909 magnetization 

 DIPCOR: dipole corrections for dipol
 direction  1 min pos     1, direction  2 min pos     1, direction  3 min pos     1,
 dipolmoment           0.213916      0.817342     -0.151377 electrons x Angstroem
 Tr[quadrupol]        32.145882

 energy correction for charged system         0.000000 eV
 dipol+quadrupol energy correction           -0.002777 eV
 added-field ion interaction         -0.112654 eV  (added to PSCEN)


 Free energy of the ion-electron system (eV)
  ---------------------------------------------------
  alpha Z        PSCENC =         1.33007171
  Ewald energy   TEWEN  =      3842.37979998
  -Hartree energ DENC   =     -5149.05900425
  -exchange      EXHF   =       108.32864789
  -V(xc)+E(xc)   XCENC  =       137.74171199
  PAW double counting   =      3937.25490556    -3946.10221995
  entropy T*S    EENTRO =        -0.00000000
  eigenvalues    EBANDS =      -699.70989031
  atomic energy  EATOM  =      1612.77738675
  ---------------------------------------------------
  free energy    TOTEN  =      -155.05859064 eV

  energy without entropy =     -155.05859064  energy(sigma->0) =     -155.05859064
  exchange ACFDT corr.  =        -0.00000000  see jH, gK, PRB 81, 115126


--------------------------------------------------------------------------------------------------------




--------------------------------------- Iteration      1(  17)  ---------------------------------------


    POTLOK:  cpu time      0.8560: real time      0.8588
    SETDIJ:  cpu time      0.0027: real time      0.0027
    TRIAL :  cpu time      5.1529: real time      5.1828
    CORREC:  cpu time      0.0002: real time      0.0002
    CHARGE:  cpu time      0.1102: real time      0.1111
    --------------------------------------------
      LOOP:  cpu time      6.1224: real time      6.1560

 eigenvalue-minimisations  :     0
 total energy-change (2. order) :-0.7034626E-02  (-0.4369313E-02)
 number of electron      52.0000003 magnetization 
 augmentation part        1.2892492 magnetization 

 DIPCOR: dipole corrections for dipol
 direction  1 min pos     1, direction  2 min pos     1, direction  3 min pos     1,
 dipolmoment           0.211806      0.816025     -0.149747 electrons x Angstroem
 Tr[quadrupol]        32.193734

 energy correction for charged system         0.000000 eV
 dipol+quadrupol energy correction           -0.002764 eV
 added-field ion interaction         -0.112183 eV  (added to PSCEN)


 Free energy of the ion-electron system (eV)
  ---------------------------------------------------
  alpha Z        PSCENC =         1.33055633
  Ewald energy   TEWEN  =      3842.37979998
  -Hartree energ DENC   =     -5148.34847708
  -exchange      EXHF   =       108.31064463
  -V(xc)+E(xc)   XCENC  =       137.71803191
  PAW double counting   =      3938.27803479    -3947.12335927
  entropy T*S    EENTRO =        -0.00000000
  eigenvalues    EBANDS =      -700.38824329
  atomic energy  EATOM  =      1612.77738675
  ---------------------------------------------------
  free energy    TOTEN  =      -155.06562526 eV

  energy without entropy =     -155.06562526  energy(sigma->0) =     -155.06562526
  exchange ACFDT corr.  =        -0.00000000  see jH, gK, PRB 81, 115126


--------------------------------------------------------------------------------------------------------




--------------------------------------- Iteration      1(  18)  ---------------------------------------


    POTLOK:  cpu time      0.8554: real time      0.8589
    SETDIJ:  cpu time      0.0025: real time      0.0025
    TRIAL :  cpu time      5.1937: real time      5.2230
    CORREC:  cpu time      0.0002: real time      0.0002
    CHARGE:  cpu time      0.1106: real time      0.1114
    --------------------------------------------
      LOOP:  cpu time      6.1628: real time      6.1964

 eigenvalue-minimisations  :     0
 total energy-change (2. order) :-0.3270251E-02  (-0.2332924E-02)
 number of electron      52.0000003 magnetization 
 augmentation part        1.2892806 magnetization 

 DIPCOR: dipole corrections for dipol
 direction  1 min pos     1, direction  2 min pos     1, direction  3 min pos     1,
 dipolmoment           0.210139      0.815383     -0.149011 electrons x Angstroem
 Tr[quadrupol]        32.209036

 energy correction for charged system         0.000000 eV
 dipol+quadrupol energy correction           -0.002757 eV
 added-field ion interaction         -0.111871 eV  (added to PSCEN)


 Free energy of the ion-electron system (eV)
  ---------------------------------------------------
  alpha Z        PSCENC =         1.33087601
  Ewald energy   TEWEN  =      3842.37979998
  -Hartree energ DENC   =     -5148.14927214
  -exchange      EXHF   =       108.30571889
  -V(xc)+E(xc)   XCENC  =       137.71132833
  PAW double counting   =      3939.24942157    -3948.09420120
  entropy T*S    EENTRO =        -0.00000000
  eigenvalues    EBANDS =      -700.57995369
  atomic energy  EATOM  =      1612.77738675
  ---------------------------------------------------
  free energy    TOTEN  =      -155.06889551 eV

  energy without entropy =     -155.06889551  energy(sigma->0) =     -155.06889551
  exchange ACFDT corr.  =        -0.00000000  see jH, gK, PRB 81, 115126


--------------------------------------------------------------------------------------------------------




--------------------------------------- Iteration      1(  19)  ---------------------------------------


    POTLOK:  cpu time      0.8555: real time      0.8587
    SETDIJ:  cpu time      0.0024: real time      0.0024
    TRIAL :  cpu time      5.1530: real time      5.1825
    CORREC:  cpu time      0.0003: real time      0.0003
    CHARGE:  cpu time      0.1106: real time      0.1116
    --------------------------------------------
      LOOP:  cpu time      6.1222: real time      6.1563

 eigenvalue-minimisations  :     0
 total energy-change (2. order) :-0.1879710E-02  (-0.1302183E-02)
 number of electron      52.0000003 magnetization 
 augmentation part        1.2893410 magnetization 

 DIPCOR: dipole corrections for dipol
 direction  1 min pos     1, direction  2 min pos     1, direction  3 min pos     1,
 dipolmoment           0.209246      0.814513     -0.148853 electrons x Angstroem
 Tr[quadrupol]        32.199718

 energy correction for charged system         0.000000 eV
 dipol+quadrupol energy correction           -0.002750 eV
 added-field ion interaction         -0.111663 eV  (added to PSCEN)


 Free energy of the ion-electron system (eV)
  ---------------------------------------------------
  alpha Z        PSCENC =         1.33109112
  Ewald energy   TEWEN  =      3842.37979998
  -Hartree energ DENC   =     -5148.27721102
  -exchange      EXHF   =       108.30868069
  -V(xc)+E(xc)   XCENC  =       137.71513471
  PAW double counting   =      3940.05658235    -3948.90180716
  entropy T*S    EENTRO =        -0.00000000
  eigenvalues    EBANDS =      -700.46043264
  atomic energy  EATOM  =      1612.77738675
  ---------------------------------------------------
  free energy    TOTEN  =      -155.07077522 eV

  energy without entropy =     -155.07077522  energy(sigma->0) =     -155.07077522
  exchange ACFDT corr.  =        -0.00000000  see jH, gK, PRB 81, 115126


--------------------------------------------------------------------------------------------------------




--------------------------------------- Iteration      1(  20)  ---------------------------------------


    POTLOK:  cpu time      0.8543: real time      0.8575
    SETDIJ:  cpu time      0.0030: real time      0.0030
    TRIAL :  cpu time      5.1835: real time      5.2182
    CORREC:  cpu time      0.0003: real time      0.0004
    CHARGE:  cpu time      0.1106: real time      0.1113
    --------------------------------------------
      LOOP:  cpu time      6.1519: real time      6.1906

 eigenvalue-minimisations  :     0
 total energy-change (2. order) :-0.1089504E-02  (-0.8042217E-03)
 number of electron      52.0000003 magnetization 
 augmentation part        1.2893592 magnetization 

 DIPCOR: dipole corrections for dipol
 direction  1 min pos     1, direction  2 min pos     1, direction  3 min pos     1,
 dipolmoment           0.208819      0.813504     -0.148817 electrons x Angstroem
 Tr[quadrupol]        32.192442

 energy correction for charged system         0.000000 eV
 dipol+quadrupol energy correction           -0.002743 eV
 added-field ion interaction         -0.111508 eV  (added to PSCEN)


 Free energy of the ion-electron system (eV)
  ---------------------------------------------------
  alpha Z        PSCENC =         1.33125233
  Ewald energy   TEWEN  =      3842.37979998
  -Hartree energ DENC   =     -5148.37331763
  -exchange      EXHF   =       108.31081097
  -V(xc)+E(xc)   XCENC  =       137.71788575
  PAW double counting   =      3940.48920698    -3949.33478150
  entropy T*S    EENTRO =        -0.00000000
  eigenvalues    EBANDS =      -700.37010836
  atomic energy  EATOM  =      1612.77738675
  ---------------------------------------------------
  free energy    TOTEN  =      -155.07186473 eV

  energy without entropy =     -155.07186473  energy(sigma->0) =     -155.07186473
  exchange ACFDT corr.  =        -0.00000000  see jH, gK, PRB 81, 115126


--------------------------------------------------------------------------------------------------------




--------------------------------------- Iteration      1(  21)  ---------------------------------------


    POTLOK:  cpu time      0.8601: real time      0.8633
    SETDIJ:  cpu time      0.0026: real time      0.0026
    TRIAL :  cpu time      5.1525: real time      5.1832
    CORREC:  cpu time      0.0003: real time      0.0003
    CHARGE:  cpu time      0.1102: real time      0.1111
    --------------------------------------------
      LOOP:  cpu time      6.1258: real time      6.1606

 eigenvalue-minimisations  :     0
 total energy-change (2. order) :-0.6896322E-03  (-0.5217685E-03)
 number of electron      52.0000003 magnetization 
 augmentation part        1.2893568 magnetization 

 DIPCOR: dipole corrections for dipol
 direction  1 min pos     1, direction  2 min pos     1, direction  3 min pos     1,
 dipolmoment           0.208546      0.812673     -0.148737 electrons x Angstroem
 Tr[quadrupol]        32.193491

 energy correction for charged system         0.000000 eV
 dipol+quadrupol energy correction           -0.002737 eV
 added-field ion interaction         -0.111390 eV  (added to PSCEN)


 Free energy of the ion-electron system (eV)
  ---------------------------------------------------
  alpha Z        PSCENC =         1.33137634
  Ewald energy   TEWEN  =      3842.37979998
  -Hartree energ DENC   =     -5148.35964131
  -exchange      EXHF   =       108.31045631
  -V(xc)+E(xc)   XCENC  =       137.71718723
  PAW double counting   =      3940.62536324    -3949.47095060
  entropy T*S    EENTRO =        -0.00000000
  eigenvalues    EBANDS =      -700.38353231
  atomic energy  EATOM  =      1612.77738675
  ---------------------------------------------------
  free energy    TOTEN  =      -155.07255436 eV

  energy without entropy =     -155.07255436  energy(sigma->0) =     -155.07255436
  exchange ACFDT corr.  =        -0.00000000  see jH, gK, PRB 81, 115126


--------------------------------------------------------------------------------------------------------




--------------------------------------- Iteration      1(  22)  ---------------------------------------


    POTLOK:  cpu time      0.8530: real time      0.8565
    SETDIJ:  cpu time      0.0026: real time      0.0026
    TRIAL :  cpu time      5.1562: real time      5.1867
    CORREC:  cpu time      0.0003: real time      0.0003
    CHARGE:  cpu time      0.1103: real time      0.1116
    --------------------------------------------
      LOOP:  cpu time      6.1230: real time      6.1581

 eigenvalue-minimisations  :     0
 total energy-change (2. order) :-0.4577594E-03  (-0.3331251E-03)
 number of electron      52.0000003 magnetization 
 augmentation part        1.2893628 magnetization 

 DIPCOR: dipole corrections for dipol
 direction  1 min pos     1, direction  2 min pos     1, direction  3 min pos     1,
 dipolmoment           0.208274      0.812129     -0.148601 electrons x Angstroem
 Tr[quadrupol]        32.197451

 energy correction for charged system         0.000000 eV
 dipol+quadrupol energy correction           -0.002733 eV
 added-field ion interaction         -0.111296 eV  (added to PSCEN)


 Free energy of the ion-electron system (eV)
  ---------------------------------------------------
  alpha Z        PSCENC =         1.33147405
  Ewald energy   TEWEN  =      3842.37979998
  -Hartree energ DENC   =     -5148.30943944
  -exchange      EXHF   =       108.30942104
  -V(xc)+E(xc)   XCENC  =       137.71563476
  PAW double counting   =      3940.63214258    -3949.47761394
  entropy T*S    EENTRO =        -0.00000000
  eigenvalues    EBANDS =      -700.43181790
  atomic energy  EATOM  =      1612.77738675
  ---------------------------------------------------
  free energy    TOTEN  =      -155.07301212 eV

  energy without entropy =     -155.07301212  energy(sigma->0) =     -155.07301212
  exchange ACFDT corr.  =        -0.00000000  see jH, gK, PRB 81, 115126


--------------------------------------------------------------------------------------------------------




--------------------------------------- Iteration      1(  23)  ---------------------------------------


    POTLOK:  cpu time      0.8543: real time      0.8572
    SETDIJ:  cpu time      0.0026: real time      0.0026
    TRIAL :  cpu time      5.1495: real time      5.1800
    CORREC:  cpu time      0.0002: real time      0.0003
    CHARGE:  cpu time      0.1109: real time      0.1115
    --------------------------------------------
      LOOP:  cpu time      6.1284: real time      6.1643

 eigenvalue-minimisations  :     0
 total energy-change (2. order) :-0.2984007E-03  (-0.2152955E-03)
 number of electron      52.0000003 magnetization 
 augmentation part        1.2893745 magnetization 

 DIPCOR: dipole corrections for dipol
 direction  1 min pos     1, direction  2 min pos     1, direction  3 min pos     1,
 dipolmoment           0.208053      0.811832     -0.148459 electrons x Angstroem
 Tr[quadrupol]        32.199631

 energy correction for charged system         0.000000 eV
 dipol+quadrupol energy correction           -0.002731 eV
 added-field ion interaction         -0.111232 eV  (added to PSCEN)


 Free energy of the ion-electron system (eV)
  ---------------------------------------------------
  alpha Z        PSCENC =         1.33153999
  Ewald energy   TEWEN  =      3842.37979998
  -Hartree energ DENC   =     -5148.28648816
  -exchange      EXHF   =       108.30913368
  -V(xc)+E(xc)   XCENC  =       137.71533276
  PAW double counting   =      3940.62646760    -3949.47189077
  entropy T*S    EENTRO =        -0.00000000
  eigenvalues    EBANDS =      -700.45459234
  atomic energy  EATOM  =      1612.77738675
  ---------------------------------------------------
  free energy    TOTEN  =      -155.07331052 eV

  energy without entropy =     -155.07331052  energy(sigma->0) =     -155.07331052
  exchange ACFDT corr.  =        -0.00000000  see jH, gK, PRB 81, 115126


--------------------------------------------------------------------------------------------------------




--------------------------------------- Iteration      1(  24)  ---------------------------------------


    POTLOK:  cpu time      0.8552: real time      0.8586
    SETDIJ:  cpu time      0.0024: real time      0.0024
    TRIAL :  cpu time      5.1706: real time      5.2007
    CORREC:  cpu time      0.0002: real time      0.0002
    CHARGE:  cpu time      0.1103: real time      0.1111
    --------------------------------------------
      LOOP:  cpu time      6.1389: real time      6.1733

 eigenvalue-minimisations  :     0
 total energy-change (2. order) :-0.1947148E-03  (-0.1463331E-03)
 number of electron      52.0000003 magnetization 
 augmentation part        1.2893820 magnetization 

 DIPCOR: dipole corrections for dipol
 direction  1 min pos     1, direction  2 min pos     1, direction  3 min pos     1,
 dipolmoment           0.207880      0.811669     -0.148359 electrons x Angstroem
 Tr[quadrupol]        32.200360

 energy correction for charged system         0.000000 eV
 dipol+quadrupol energy correction           -0.002730 eV
 added-field ion interaction         -0.111189 eV  (added to PSCEN)


 Free energy of the ion-electron system (eV)
  ---------------------------------------------------
  alpha Z        PSCENC =         1.33158466
  Ewald energy   TEWEN  =      3842.37979998
  -Hartree energ DENC   =     -5148.28578693
  -exchange      EXHF   =       108.30935871
  -V(xc)+E(xc)   XCENC  =       137.71562562
  PAW double counting   =      3940.63038359    -3949.47582267
  entropy T*S    EENTRO =        -0.00000000
  eigenvalues    EBANDS =      -700.45603494
  atomic energy  EATOM  =      1612.77738675
  ---------------------------------------------------
  free energy    TOTEN  =      -155.07350523 eV

  energy without entropy =     -155.07350523  energy(sigma->0) =     -155.07350523
  exchange ACFDT corr.  =        -0.00000000  see jH, gK, PRB 81, 115126


--------------------------------------------------------------------------------------------------------




--------------------------------------- Iteration      1(  25)  ---------------------------------------


    POTLOK:  cpu time      0.8552: real time      0.8584
    SETDIJ:  cpu time      0.0025: real time      0.0025
    TRIAL :  cpu time      5.1588: real time      5.1923
    CORREC:  cpu time      0.0001: real time      0.0001
    CHARGE:  cpu time      0.1102: real time      0.1113
    --------------------------------------------
      LOOP:  cpu time      6.1272: real time      6.1649

 eigenvalue-minimisations  :     0
 total energy-change (2. order) :-0.1332480E-03  (-0.1031578E-03)
 number of electron      52.0000003 magnetization 
 augmentation part        1.2893830 magnetization 

 DIPCOR: dipole corrections for dipol
 direction  1 min pos     1, direction  2 min pos     1, direction  3 min pos     1,
 dipolmoment           0.207753      0.811518     -0.148277 electrons x Angstroem
 Tr[quadrupol]        32.200665

 energy correction for charged system         0.000000 eV
 dipol+quadrupol energy correction           -0.002728 eV
 added-field ion interaction         -0.111155 eV  (added to PSCEN)


 Free energy of the ion-electron system (eV)
  ---------------------------------------------------
  alpha Z        PSCENC =         1.33162043
  Ewald energy   TEWEN  =      3842.37979998
  -Hartree energ DENC   =     -5148.28771830
  -exchange      EXHF   =       108.30956315
  -V(xc)+E(xc)   XCENC  =       137.71567747
  PAW double counting   =      3940.63086338    -3949.47632201
  entropy T*S    EENTRO =        -0.00000000
  eigenvalues    EBANDS =      -700.45450933
  atomic energy  EATOM  =      1612.77738675
  ---------------------------------------------------
  free energy    TOTEN  =      -155.07363848 eV

  energy without entropy =     -155.07363848  energy(sigma->0) =     -155.07363848
  exchange ACFDT corr.  =        -0.00000000  see jH, gK, PRB 81, 115126


--------------------------------------------------------------------------------------------------------




--------------------------------------- Iteration      1(  26)  ---------------------------------------


    POTLOK:  cpu time      0.8538: real time      0.8574
    SETDIJ:  cpu time      0.0038: real time      0.0039
    TRIAL :  cpu time      5.1607: real time      5.1957
    CORREC:  cpu time      0.0001: real time      0.0001
    CHARGE:  cpu time      0.1108: real time      0.1118
    --------------------------------------------
      LOOP:  cpu time      6.1297: real time      6.1692

 eigenvalue-minimisations  :     0
 total energy-change (2. order) :-0.9394433E-04  (-0.7318870E-04)
 number of electron      52.0000003 magnetization 
 augmentation part        1.2893817 magnetization 

 DIPCOR: dipole corrections for dipol
 direction  1 min pos     1, direction  2 min pos     1, direction  3 min pos     1,
 dipolmoment           0.207677      0.811345     -0.148236 electrons x Angstroem
 Tr[quadrupol]        32.200738

 energy correction for charged system         0.000000 eV
 dipol+quadrupol energy correction           -0.002727 eV
 added-field ion interaction         -0.111126 eV  (added to PSCEN)


 Free energy of the ion-electron system (eV)
  ---------------------------------------------------
  alpha Z        PSCENC =         1.33164975
  Ewald energy   TEWEN  =      3842.37979998
  -Hartree energ DENC   =     -5148.28767807
  -exchange      EXHF   =       108.30964234
  -V(xc)+E(xc)   XCENC  =       137.71586878
  PAW double counting   =      3940.62552272    -3949.47098256
  entropy T*S    EENTRO =        -0.00000000
  eigenvalues    EBANDS =      -700.45494213
  atomic energy  EATOM  =      1612.77738675
  ---------------------------------------------------
  free energy    TOTEN  =      -155.07373243 eV

  energy without entropy =     -155.07373243  energy(sigma->0) =     -155.07373243
  exchange ACFDT corr.  =        -0.00000000  see jH, gK, PRB 81, 115126


--------------------------------------------------------------------------------------------------------




--------------------------------------- Iteration      1(  27)  ---------------------------------------


    POTLOK:  cpu time      0.8547: real time      0.8584
    SETDIJ:  cpu time      0.0025: real time      0.0025
    TRIAL :  cpu time      5.1543: real time      5.1886
    CORREC:  cpu time      0.0002: real time      0.0002
    CHARGE:  cpu time      0.1107: real time      0.1116
    --------------------------------------------
      LOOP:  cpu time      6.1226: real time      6.1616

 eigenvalue-minimisations  :     0
 total energy-change (2. order) :-0.6625218E-04  (-0.5269473E-04)
 number of electron      52.0000003 magnetization 
 augmentation part        1.2893830 magnetization 

 DIPCOR: dipole corrections for dipol
 direction  1 min pos     1, direction  2 min pos     1, direction  3 min pos     1,
 dipolmoment           0.207600      0.811226     -0.148214 electrons x Angstroem
 Tr[quadrupol]        32.201326

 energy correction for charged system         0.000000 eV
 dipol+quadrupol energy correction           -0.002726 eV
 added-field ion interaction         -0.111104 eV  (added to PSCEN)


 Free energy of the ion-electron system (eV)
  ---------------------------------------------------
  alpha Z        PSCENC =         1.33167357
  Ewald energy   TEWEN  =      3842.37979998
  -Hartree energ DENC   =     -5148.28211430
  -exchange      EXHF   =       108.30959723
  -V(xc)+E(xc)   XCENC  =       137.71569155
  PAW double counting   =      3940.61533823    -3949.46078763
  entropy T*S    EENTRO =        -0.00000000
  eigenvalues    EBANDS =      -700.46038405
  atomic energy  EATOM  =      1612.77738675
  ---------------------------------------------------
  free energy    TOTEN  =      -155.07379868 eV

  energy without entropy =     -155.07379868  energy(sigma->0) =     -155.07379868
  exchange ACFDT corr.  =        -0.00000000  see jH, gK, PRB 81, 115126


--------------------------------------------------------------------------------------------------------




--------------------------------------- Iteration      1(  28)  ---------------------------------------


    POTLOK:  cpu time      0.8521: real time      0.8564
    SETDIJ:  cpu time      0.0025: real time      0.0025
    TRIAL :  cpu time      5.1619: real time      5.1965
    CORREC:  cpu time      0.0002: real time      0.0002
    CHARGE:  cpu time      0.1101: real time      0.1118
    --------------------------------------------
      LOOP:  cpu time      6.1271: real time      6.1677

 eigenvalue-minimisations  :     0
 total energy-change (2. order) :-0.4868441E-04  (-0.3865181E-04)
 number of electron      52.0000003 magnetization 
 augmentation part        1.2893853 magnetization 

 DIPCOR: dipole corrections for dipol
 direction  1 min pos     1, direction  2 min pos     1, direction  3 min pos     1,
 dipolmoment           0.207562      0.811155     -0.148178 electrons x Angstroem
 Tr[quadrupol]        32.201635

 energy correction for charged system         0.000000 eV
 dipol+quadrupol energy correction           -0.002726 eV
 added-field ion interaction         -0.111091 eV  (added to PSCEN)


 Free energy of the ion-electron system (eV)
  ---------------------------------------------------
  alpha Z        PSCENC =         1.33168647
  Ewald energy   TEWEN  =      3842.37979998
  -Hartree energ DENC   =     -5148.27961605
  -exchange      EXHF   =       108.30963462
  -V(xc)+E(xc)   XCENC  =       137.71580565
  PAW double counting   =      3940.61085203    -3949.45630015
  entropy T*S    EENTRO =        -0.00000000
  eigenvalues    EBANDS =      -700.46309666
  atomic energy  EATOM  =      1612.77738675
  ---------------------------------------------------
  free energy    TOTEN  =      -155.07384736 eV

  energy without entropy =     -155.07384736  energy(sigma->0) =     -155.07384736
  exchange ACFDT corr.  =        -0.00000000  see jH, gK, PRB 81, 115126


--------------------------------------------------------------------------------------------------------




--------------------------------------- Iteration      1(  29)  ---------------------------------------


    POTLOK:  cpu time      0.8637: real time      0.8670
    SETDIJ:  cpu time      0.0026: real time      0.0026
    TRIAL :  cpu time      5.1557: real time      5.1911
    CORREC:  cpu time      0.0002: real time      0.0002
    CHARGE:  cpu time      0.1104: real time      0.1113
    --------------------------------------------
      LOOP:  cpu time      6.1330: real time      6.1770

 eigenvalue-minimisations  :     0
 total energy-change (2. order) :-0.3418565E-04  (-0.2860402E-04)
 number of electron      52.0000003 magnetization 
 augmentation part        1.2893885 magnetization 

 DIPCOR: dipole corrections for dipol
 direction  1 min pos     1, direction  2 min pos     1, direction  3 min pos     1,
 dipolmoment           0.207512      0.811110     -0.148183 electrons x Angstroem
 Tr[quadrupol]        32.202267

 energy correction for charged system         0.000000 eV
 dipol+quadrupol energy correction           -0.002725 eV
 added-field ion interaction         -0.111080 eV  (added to PSCEN)


 Free energy of the ion-electron system (eV)
  ---------------------------------------------------
  alpha Z        PSCENC =         1.33169846
  Ewald energy   TEWEN  =      3842.37979998
  -Hartree energ DENC   =     -5148.27632688
  -exchange      EXHF   =       108.30966269
  -V(xc)+E(xc)   XCENC  =       137.71572088
  PAW double counting   =      3940.60789722    -3949.45334831
  entropy T*S    EENTRO =        -0.00000000
  eigenvalues    EBANDS =      -700.46637235
  atomic energy  EATOM  =      1612.77738675
  ---------------------------------------------------
  free energy    TOTEN  =      -155.07388155 eV

  energy without entropy =     -155.07388155  energy(sigma->0) =     -155.07388155
  exchange ACFDT corr.  =        -0.00000000  see jH, gK, PRB 81, 115126


--------------------------------------------------------------------------------------------------------




--------------------------------------- Iteration      1(  30)  ---------------------------------------


    POTLOK:  cpu time      0.8538: real time      0.8582
    SETDIJ:  cpu time      0.0026: real time      0.0026
    TRIAL :  cpu time      5.1708: real time      5.2071
    CORREC:  cpu time      0.0001: real time      0.0001
    CHARGE:  cpu time      0.1102: real time      0.1111
    --------------------------------------------
      LOOP:  cpu time      6.1378: real time      6.1794

 eigenvalue-minimisations  :     0
 total energy-change (2. order) :-0.2630778E-04  (-0.2162776E-04)
 number of electron      52.0000003 magnetization 
 augmentation part        1.2893895 magnetization 

 DIPCOR: dipole corrections for dipol
 direction  1 min pos     1, direction  2 min pos     1, direction  3 min pos     1,
 dipolmoment           0.207488      0.811102     -0.148161 electrons x Angstroem
 Tr[quadrupol]        32.202349

 energy correction for charged system         0.000000 eV
 dipol+quadrupol energy correction           -0.002725 eV
 added-field ion interaction         -0.111075 eV  (added to PSCEN)


 Free energy of the ion-electron system (eV)
  ---------------------------------------------------
  alpha Z        PSCENC =         1.33170297
  Ewald energy   TEWEN  =      3842.37979998
  -Hartree energ DENC   =     -5148.27599619
  -exchange      EXHF   =       108.30973243
  -V(xc)+E(xc)   XCENC  =       137.71590767
  PAW double counting   =      3940.60778020    -3949.45323751
  entropy T*S    EENTRO =        -0.00000000
  eigenvalues    EBANDS =      -700.46698417
  atomic energy  EATOM  =      1612.77738675
  ---------------------------------------------------
  free energy    TOTEN  =      -155.07390786 eV

  energy without entropy =     -155.07390786  energy(sigma->0) =     -155.07390786
  exchange ACFDT corr.  =        -0.00000000  see jH, gK, PRB 81, 115126


--------------------------------------------------------------------------------------------------------




--------------------------------------- Iteration      1(  31)  ---------------------------------------


    POTLOK:  cpu time      0.8534: real time      0.8571
    SETDIJ:  cpu time      0.0030: real time      0.0030
    TRIAL :  cpu time      5.1682: real time      5.2031
    CORREC:  cpu time      0.0002: real time      0.0002
    CHARGE:  cpu time      0.1102: real time      0.1112
    --------------------------------------------
      LOOP:  cpu time      6.1353: real time      6.1749

 eigenvalue-minimisations  :     0
 total energy-change (2. order) :-0.1892717E-04  (-0.1667473E-04)
 number of electron      52.0000003 magnetization 
 augmentation part        1.2893910 magnetization 

 DIPCOR: dipole corrections for dipol
 direction  1 min pos     1, direction  2 min pos     1, direction  3 min pos     1,
 dipolmoment           0.207468      0.811069     -0.148175 electrons x Angstroem
 Tr[quadrupol]        32.202955

 energy correction for charged system         0.000000 eV
 dipol+quadrupol energy correction           -0.002725 eV
 added-field ion interaction         -0.111070 eV  (added to PSCEN)


 Free energy of the ion-electron system (eV)
  ---------------------------------------------------
  alpha Z        PSCENC =         1.33170834
  Ewald energy   TEWEN  =      3842.37979998
  -Hartree energ DENC   =     -5148.27277897
  -exchange      EXHF   =       108.30972904
  -V(xc)+E(xc)   XCENC  =       137.71576835
  PAW double counting   =      3940.60456411    -3949.45002163
  entropy T*S    EENTRO =        -0.00000000
  eigenvalues    EBANDS =      -700.47008276
  atomic energy  EATOM  =      1612.77738675
  ---------------------------------------------------
  free energy    TOTEN  =      -155.07392678 eV

  energy without entropy =     -155.07392678  energy(sigma->0) =     -155.07392678
  exchange ACFDT corr.  =        -0.00000000  see jH, gK, PRB 81, 115126


--------------------------------------------------------------------------------------------------------




--------------------------------------- Iteration      1(  32)  ---------------------------------------


    POTLOK:  cpu time      0.8541: real time      0.8578
    SETDIJ:  cpu time      0.0023: real time      0.0023
    TRIAL :  cpu time      5.1627: real time      5.1974
    CORREC:  cpu time      0.0002: real time      0.0002
    CHARGE:  cpu time      0.1103: real time      0.1112
    --------------------------------------------
      LOOP:  cpu time      6.1300: real time      6.1693

 eigenvalue-minimisations  :     0
 total energy-change (2. order) :-0.1491104E-04  (-0.1314927E-04)
 number of electron      52.0000003 magnetization 
 augmentation part        1.2893908 magnetization 

 DIPCOR: dipole corrections for dipol
 direction  1 min pos     1, direction  2 min pos     1, direction  3 min pos     1,
 dipolmoment           0.207454      0.811089     -0.148143 electrons x Angstroem
 Tr[quadrupol]        32.202954

 energy correction for charged system         0.000000 eV
 dipol+quadrupol energy correction           -0.002725 eV
 added-field ion interaction         -0.111068 eV  (added to PSCEN)


 Free energy of the ion-electron system (eV)
  ---------------------------------------------------
  alpha Z        PSCENC =         1.33171018
  Ewald energy   TEWEN  =      3842.37979998
  -Hartree energ DENC   =     -5148.27237100
  -exchange      EXHF   =       108.30976546
  -V(xc)+E(xc)   XCENC  =       137.71591566
  PAW double counting   =      3940.60312423    -3949.44858410
  entropy T*S    EENTRO =        -0.00000000
  eigenvalues    EBANDS =      -700.47068887
  atomic energy  EATOM  =      1612.77738675
  ---------------------------------------------------
  free energy    TOTEN  =      -155.07394169 eV

  energy without entropy =     -155.07394169  energy(sigma->0) =     -155.07394169
  exchange ACFDT corr.  =        -0.00000000  see jH, gK, PRB 81, 115126


--------------------------------------------------------------------------------------------------------




--------------------------------------- Iteration      1(  33)  ---------------------------------------


    POTLOK:  cpu time      0.8541: real time      0.8578
    SETDIJ:  cpu time      0.0027: real time      0.0027
    TRIAL :  cpu time      5.1556: real time      5.1905
    CORREC:  cpu time      0.0001: real time      0.0001
    CHARGE:  cpu time      0.1142: real time      0.1153
    --------------------------------------------
      LOOP:  cpu time      6.1361: real time      6.1777

 eigenvalue-minimisations  :     0
 total energy-change (2. order) :-0.9247619E-05  (-0.1021046E-04)
 number of electron      52.0000003 magnetization 
 augmentation part        1.2893913 magnetization 

 DIPCOR: dipole corrections for dipol
 direction  1 min pos     1, direction  2 min pos     1, direction  3 min pos     1,
 dipolmoment           0.207431      0.811052     -0.148169 electrons x Angstroem
 Tr[quadrupol]        32.203404

 energy correction for charged system         0.000000 eV
 dipol+quadrupol energy correction           -0.002725 eV
 added-field ion interaction         -0.111064 eV  (added to PSCEN)


 Free energy of the ion-electron system (eV)
  ---------------------------------------------------
  alpha Z        PSCENC =         1.33171468
  Ewald energy   TEWEN  =      3842.37979998
  -Hartree energ DENC   =     -5148.27010189
  -exchange      EXHF   =       108.30976316
  -V(xc)+E(xc)   XCENC  =       137.71582367
  PAW double counting   =      3940.59916912    -3949.44462781
  entropy T*S    EENTRO =        -0.00000000
  eigenvalues    EBANDS =      -700.47287860
  atomic energy  EATOM  =      1612.77738675
  ---------------------------------------------------
  free energy    TOTEN  =      -155.07395094 eV

  energy without entropy =     -155.07395094  energy(sigma->0) =     -155.07395094
  exchange ACFDT corr.  =        -0.00000000  see jH, gK, PRB 81, 115126


--------------------------------------------------------------------------------------------------------




--------------------------------------- Iteration      1(  34)  ---------------------------------------


    POTLOK:  cpu time      0.8530: real time      0.8566
    SETDIJ:  cpu time      0.0030: real time      0.0030
    TRIAL :  cpu time      5.1689: real time      5.1983
    CORREC:  cpu time      0.0002: real time      0.0002
    CHARGE:  cpu time      0.1102: real time      0.1113
    --------------------------------------------
      LOOP:  cpu time      6.1355: real time      6.1696

 eigenvalue-minimisations  :     0
 total energy-change (2. order) :-0.7754467E-05  (-0.8007084E-05)
 number of electron      52.0000003 magnetization 
 augmentation part        1.2893910 magnetization 

 DIPCOR: dipole corrections for dipol
 direction  1 min pos     1, direction  2 min pos     1, direction  3 min pos     1,
 dipolmoment           0.207427      0.811083     -0.148138 electrons x Angstroem
 Tr[quadrupol]        32.203367

 energy correction for charged system         0.000000 eV
 dipol+quadrupol energy correction           -0.002725 eV
 added-field ion interaction         -0.111064 eV  (added to PSCEN)


 Free energy of the ion-electron system (eV)
  ---------------------------------------------------
  alpha Z        PSCENC =         1.33171447
  Ewald energy   TEWEN  =      3842.37979998
  -Hartree energ DENC   =     -5148.27025589
  -exchange      EXHF   =       108.30979943
  -V(xc)+E(xc)   XCENC  =       137.71589780
  PAW double counting   =      3940.59644685    -3949.44190700
  entropy T*S    EENTRO =        -0.00000000
  eigenvalues    EBANDS =      -700.47284109
  atomic energy  EATOM  =      1612.77738675
  ---------------------------------------------------
  free energy    TOTEN  =      -155.07395870 eV

  energy without entropy =     -155.07395870  energy(sigma->0) =     -155.07395870
  exchange ACFDT corr.  =        -0.00000000  see jH, gK, PRB 81, 115126


--------------------------------------------------------------------------------------------------------




--------------------------------------- Iteration      1(  35)  ---------------------------------------


    POTLOK:  cpu time      0.8548: real time      0.8576
    SETDIJ:  cpu time      0.0023: real time      0.0024
    TRIAL :  cpu time      5.1681: real time      5.1977
    CORREC:  cpu time      0.0001: real time      0.0001
    CHARGE:  cpu time      0.1104: real time      0.1113
    --------------------------------------------
      LOOP:  cpu time      6.1361: real time      6.1694

 eigenvalue-minimisations  :     0
 total energy-change (2. order) :-0.7444337E-05  (-0.6969533E-05)
 number of electron      52.0000003 magnetization 
 augmentation part        1.2893913 magnetization 

 DIPCOR: dipole corrections for dipol
 direction  1 min pos     1, direction  2 min pos     1, direction  3 min pos     1,
 dipolmoment           0.207420      0.811069     -0.148157 electrons x Angstroem
 Tr[quadrupol]        32.203633

 energy correction for charged system         0.000000 eV
 dipol+quadrupol energy correction           -0.002725 eV
 added-field ion interaction         -0.111062 eV  (added to PSCEN)


 Free energy of the ion-electron system (eV)
  ---------------------------------------------------
  alpha Z        PSCENC =         1.33171623
  Ewald energy   TEWEN  =      3842.37979998
  -Hartree energ DENC   =     -5148.26870303
  -exchange      EXHF   =       108.30980065
  -V(xc)+E(xc)   XCENC  =       137.71586398
  PAW double counting   =      3940.59187935    -3949.43733827
  entropy T*S    EENTRO =        -0.00000000
  eigenvalues    EBANDS =      -700.47437178
  atomic energy  EATOM  =      1612.77738675
  ---------------------------------------------------
  free energy    TOTEN  =      -155.07396614 eV

  energy without entropy =     -155.07396614  energy(sigma->0) =     -155.07396614
  exchange ACFDT corr.  =        -0.00000000  see jH, gK, PRB 81, 115126


--------------------------------------------------------------------------------------------------------




--------------------------------------- Iteration      1(  36)  ---------------------------------------


    POTLOK:  cpu time      0.8510: real time      0.8545
    SETDIJ:  cpu time      0.0057: real time      0.0057
    TRIAL :  cpu time      5.1862: real time      5.2153
    CORREC:  cpu time      0.0001: real time      0.0001
    CHARGE:  cpu time      0.1104: real time      0.1113
    --------------------------------------------
      LOOP:  cpu time      6.1537: real time      6.1872

 eigenvalue-minimisations  :     0
 total energy-change (2. order) :-0.4041010E-05  (-0.6493155E-05)
 number of electron      52.0000003 magnetization 
 augmentation part        1.2893909 magnetization 

 DIPCOR: dipole corrections for dipol
 direction  1 min pos     1, direction  2 min pos     1, direction  3 min pos     1,
 dipolmoment           0.207407      0.811083     -0.148131 electrons x Angstroem
 Tr[quadrupol]        32.203649

 energy correction for charged system         0.000000 eV
 dipol+quadrupol energy correction           -0.002725 eV
 added-field ion interaction         -0.111061 eV  (added to PSCEN)


 Free energy of the ion-electron system (eV)
  ---------------------------------------------------
  alpha Z        PSCENC =         1.33171753
  Ewald energy   TEWEN  =      3842.37979998
  -Hartree energ DENC   =     -5148.26875266
  -exchange      EXHF   =       108.30982578
  -V(xc)+E(xc)   XCENC  =       137.71594535
  PAW double counting   =      3940.58855389    -3949.43401354
  entropy T*S    EENTRO =        -0.00000000
  eigenvalues    EBANDS =      -700.47443327
  atomic energy  EATOM  =      1612.77738675
  ---------------------------------------------------
  free energy    TOTEN  =      -155.07397018 eV

  energy without entropy =     -155.07397018  energy(sigma->0) =     -155.07397018
  exchange ACFDT corr.  =        -0.00000000  see jH, gK, PRB 81, 115126


--------------------------------------------------------------------------------------------------------




--------------------------------------- Iteration      1(  37)  ---------------------------------------


    POTLOK:  cpu time      0.8534: real time      0.8565
    SETDIJ:  cpu time      0.0027: real time      0.0027
    TRIAL :  cpu time      5.1626: real time      5.1917
    CORREC:  cpu time      0.0002: real time      0.0001
    CHARGE:  cpu time      0.1104: real time      0.1112
    --------------------------------------------
      LOOP:  cpu time      6.1294: real time      6.1625

 eigenvalue-minimisations  :     0
 total energy-change (2. order) :-0.5249574E-05  (-0.6123533E-05)
 number of electron      52.0000003 magnetization 
 augmentation part        1.2893919 magnetization 

 DIPCOR: dipole corrections for dipol
 direction  1 min pos     1, direction  2 min pos     1, direction  3 min pos     1,
 dipolmoment           0.207411      0.811079     -0.148148 electrons x Angstroem
 Tr[quadrupol]        32.204007

 energy correction for charged system         0.000000 eV
 dipol+quadrupol energy correction           -0.002725 eV
 added-field ion interaction         -0.111063 eV  (added to PSCEN)


 Free energy of the ion-electron system (eV)
  ---------------------------------------------------
  alpha Z        PSCENC =         1.33171577
  Ewald energy   TEWEN  =      3842.37979998
  -Hartree energ DENC   =     -5148.26653740
  -exchange      EXHF   =       108.30980985
  -V(xc)+E(xc)   XCENC  =       137.71583916
  PAW double counting   =      3940.58377898    -3949.42923730
  entropy T*S    EENTRO =        -0.00000000
  eigenvalues    EBANDS =      -700.47653122
  atomic energy  EATOM  =      1612.77738675
  ---------------------------------------------------
  free energy    TOTEN  =      -155.07397543 eV

  energy without entropy =     -155.07397543  energy(sigma->0) =     -155.07397543
  exchange ACFDT corr.  =        -0.00000000  see jH, gK, PRB 81, 115126


--------------------------------------------------------------------------------------------------------




--------------------------------------- Iteration      1(  38)  ---------------------------------------


    POTLOK:  cpu time      0.8538: real time      0.8569
    SETDIJ:  cpu time      0.0026: real time      0.0027
    TRIAL :  cpu time      5.1484: real time      5.1782
    CORREC:  cpu time      0.0003: real time      0.0003
    CHARGE:  cpu time      0.1103: real time      0.1112
    --------------------------------------------
      LOOP:  cpu time      6.1158: real time      6.1495

 eigenvalue-minimisations  :     0
 total energy-change (2. order) :-0.2233006E-05  (-0.5263532E-05)
 number of electron      52.0000003 magnetization 
 augmentation part        1.2893916 magnetization 

 DIPCOR: dipole corrections for dipol
 direction  1 min pos     1, direction  2 min pos     1, direction  3 min pos     1,
 dipolmoment           0.207403      0.811109     -0.148118 electrons x Angstroem
 Tr[quadrupol]        32.203812

 energy correction for charged system         0.000000 eV
 dipol+quadrupol energy correction           -0.002725 eV
 added-field ion interaction         -0.111063 eV  (added to PSCEN)


 Free energy of the ion-electron system (eV)
  ---------------------------------------------------
  alpha Z        PSCENC =         1.33171551
  Ewald energy   TEWEN  =      3842.37979998
  -Hartree energ DENC   =     -5148.26793144
  -exchange      EXHF   =       108.30986152
  -V(xc)+E(xc)   XCENC  =       137.71595656
  PAW double counting   =      3940.58248592    -3949.42794670
  entropy T*S    EENTRO =        -0.00000000
  eigenvalues    EBANDS =      -700.47530577
  atomic energy  EATOM  =      1612.77738675
  ---------------------------------------------------
  free energy    TOTEN  =      -155.07397766 eV

  energy without entropy =     -155.07397766  energy(sigma->0) =     -155.07397766
  exchange ACFDT corr.  =        -0.00000000  see jH, gK, PRB 81, 115126


--------------------------------------------------------------------------------------------------------




--------------------------------------- Iteration      1(  39)  ---------------------------------------


    POTLOK:  cpu time      0.8547: real time      0.8579
    SETDIJ:  cpu time      0.0025: real time      0.0026
    TRIAL :  cpu time      5.1520: real time      5.1815
    CORREC:  cpu time      0.0002: real time      0.0002
    CHARGE:  cpu time      0.1103: real time      0.1112
    --------------------------------------------
      LOOP:  cpu time      6.1202: real time      6.1647

 eigenvalue-minimisations  :     0
 total energy-change (2. order) :-0.3838180E-05  (-0.4845648E-05)
 number of electron      52.0000003 magnetization 
 augmentation part        1.2893923 magnetization 

 DIPCOR: dipole corrections for dipol
 direction  1 min pos     1, direction  2 min pos     1, direction  3 min pos     1,
 dipolmoment           0.207405      0.811099     -0.148144 electrons x Angstroem
 Tr[quadrupol]        32.204155

 energy correction for charged system         0.000000 eV
 dipol+quadrupol energy correction           -0.002725 eV
 added-field ion interaction         -0.111064 eV  (added to PSCEN)


 Free energy of the ion-electron system (eV)
  ---------------------------------------------------
  alpha Z        PSCENC =         1.33171435
  Ewald energy   TEWEN  =      3842.37979998
  -Hartree energ DENC   =     -5148.26607443
  -exchange      EXHF   =       108.30984466
  -V(xc)+E(xc)   XCENC  =       137.71588443
  PAW double counting   =      3940.57900099    -3949.42446008
  entropy T*S    EENTRO =        -0.00000000
  eigenvalues    EBANDS =      -700.47707815
  atomic energy  EATOM  =      1612.77738675
  ---------------------------------------------------
  free energy    TOTEN  =      -155.07398150 eV

  energy without entropy =     -155.07398150  energy(sigma->0) =     -155.07398150
  exchange ACFDT corr.  =        -0.00000000  see jH, gK, PRB 81, 115126


--------------------------------------------------------------------------------------------------------




--------------------------------------- Iteration      1(  40)  ---------------------------------------


    POTLOK:  cpu time      0.8528: real time      0.8563
    SETDIJ:  cpu time      0.0026: real time      0.0027
    TRIAL :  cpu time      5.1668: real time      5.1983
    CORREC:  cpu time      0.0001: real time      0.0001
    CHARGE:  cpu time      0.1104: real time      0.1113
    --------------------------------------------
      LOOP:  cpu time      6.1331: real time      6.1690

 eigenvalue-minimisations  :     0
 total energy-change (2. order) :-0.2154815E-05  (-0.4053913E-05)
 number of electron      52.0000003 magnetization 
 augmentation part        1.2893921 magnetization 

 DIPCOR: dipole corrections for dipol
 direction  1 min pos     1, direction  2 min pos     1, direction  3 min pos     1,
 dipolmoment           0.207403      0.811119     -0.148108 electrons x Angstroem
 Tr[quadrupol]        32.204056

 energy correction for charged system         0.000000 eV
 dipol+quadrupol energy correction           -0.002725 eV
 added-field ion interaction         -0.111063 eV  (added to PSCEN)


 Free energy of the ion-electron system (eV)
  ---------------------------------------------------
  alpha Z        PSCENC =         1.33171478
  Ewald energy   TEWEN  =      3842.37979998
  -Hartree energ DENC   =     -5148.26667055
  -exchange      EXHF   =       108.30987378
  -V(xc)+E(xc)   XCENC  =       137.71595957
  PAW double counting   =      3940.57822950    -3949.42369004
  entropy T*S    EENTRO =        -0.00000000
  eigenvalues    EBANDS =      -700.47658743
  atomic energy  EATOM  =      1612.77738675
  ---------------------------------------------------
  free energy    TOTEN  =      -155.07398366 eV

  energy without entropy =     -155.07398366  energy(sigma->0) =     -155.07398366
  exchange ACFDT corr.  =        -0.00000000  see jH, gK, PRB 81, 115126


--------------------------------------------------------------------------------------------------------




--------------------------------------- Iteration      1(  41)  ---------------------------------------


    POTLOK:  cpu time      0.8514: real time      0.8542
    SETDIJ:  cpu time      0.0056: real time      0.0056
    TRIAL :  cpu time      5.1786: real time      5.2082
    CORREC:  cpu time      0.0002: real time      0.0003
    CHARGE:  cpu time      0.1107: real time      0.1113
    --------------------------------------------
      LOOP:  cpu time      6.1468: real time      6.1801

 eigenvalue-minimisations  :     0
 total energy-change (2. order) :-0.2796577E-05  (-0.3758070E-05)
 number of electron      52.0000003 magnetization 
 augmentation part        1.2893927 magnetization 

 DIPCOR: dipole corrections for dipol
 direction  1 min pos     1, direction  2 min pos     1, direction  3 min pos     1,
 dipolmoment           0.207397      0.811110     -0.148123 electrons x Angstroem
 Tr[quadrupol]        32.204282

 energy correction for charged system         0.000000 eV
 dipol+quadrupol energy correction           -0.002725 eV
 added-field ion interaction         -0.111062 eV  (added to PSCEN)


 Free energy of the ion-electron system (eV)
  ---------------------------------------------------
  alpha Z        PSCENC =         1.33171588
  Ewald energy   TEWEN  =      3842.37979998
  -Hartree energ DENC   =     -5148.26537240
  -exchange      EXHF   =       108.30986565
  -V(xc)+E(xc)   XCENC  =       137.71590465
  PAW double counting   =      3940.57650697    -3949.42196642
  entropy T*S    EENTRO =        -0.00000000
  eigenvalues    EBANDS =      -700.47782753
  atomic energy  EATOM  =      1612.77738675
  ---------------------------------------------------
  free energy    TOTEN  =      -155.07398645 eV

  energy without entropy =     -155.07398645  energy(sigma->0) =     -155.07398645
  exchange ACFDT corr.  =        -0.00000000  see jH, gK, PRB 81, 115126


--------------------------------------------------------------------------------------------------------




--------------------------------------- Iteration      1(  42)  ---------------------------------------


    POTLOK:  cpu time      0.8577: real time      0.8612
    SETDIJ:  cpu time      0.0035: real time      0.0035
    TRIAL :  cpu time      5.1724: real time      5.2015
    CORREC:  cpu time      0.0001: real time      0.0003
    CHARGE:  cpu time      0.1104: real time      0.1110
    --------------------------------------------
      LOOP:  cpu time      6.1444: real time      6.1777

 eigenvalue-minimisations  :     0
 total energy-change (2. order) :-0.1150573E-05  (-0.3546310E-05)
 number of electron      52.0000003 magnetization 
 augmentation part        1.2893922 magnetization 

 DIPCOR: dipole corrections for dipol
 direction  1 min pos     1, direction  2 min pos     1, direction  3 min pos     1,
 dipolmoment           0.207402      0.811129     -0.148104 electrons x Angstroem
 Tr[quadrupol]        32.204218

 energy correction for charged system         0.000000 eV
 dipol+quadrupol energy correction           -0.002725 eV
 added-field ion interaction         -0.111064 eV  (added to PSCEN)


 Free energy of the ion-electron system (eV)
  ---------------------------------------------------
  alpha Z        PSCENC =         1.33171440
  Ewald energy   TEWEN  =      3842.37979998
  -Hartree energ DENC   =     -5148.26586775
  -exchange      EXHF   =       108.30989015
  -V(xc)+E(xc)   XCENC  =       137.71599259
  PAW double counting   =      3940.57642234    -3949.42188270
  entropy T*S    EENTRO =        -0.00000000
  eigenvalues    EBANDS =      -700.47744337
  atomic energy  EATOM  =      1612.77738675
  ---------------------------------------------------
  free energy    TOTEN  =      -155.07398761 eV

  energy without entropy =     -155.07398761  energy(sigma->0) =     -155.07398761
  exchange ACFDT corr.  =        -0.00000000  see jH, gK, PRB 81, 115126


--------------------------------------------------------------------------------------------------------




--------------------------------------- Iteration      1(  43)  ---------------------------------------


    POTLOK:  cpu time      0.8536: real time      0.8569
    SETDIJ:  cpu time      0.0027: real time      0.0027
    TRIAL :  cpu time      5.1371: real time      5.1665
    CORREC:  cpu time      0.0001: real time      0.0001
    CHARGE:  cpu time      0.1103: real time      0.1112
    --------------------------------------------
      LOOP:  cpu time      6.1045: real time      6.1503

 eigenvalue-minimisations  :     0
 total energy-change (2. order) :-0.1935751E-05  (-0.3525841E-05)
 number of electron      52.0000003 magnetization 
 augmentation part        1.2893928 magnetization 

 DIPCOR: dipole corrections for dipol
 direction  1 min pos     1, direction  2 min pos     1, direction  3 min pos     1,
 dipolmoment           0.207396      0.811120     -0.148126 electrons x Angstroem
 Tr[quadrupol]        32.204389

 energy correction for charged system         0.000000 eV
 dipol+quadrupol energy correction           -0.002725 eV
 added-field ion interaction         -0.111064 eV  (added to PSCEN)


 Free energy of the ion-electron system (eV)
  ---------------------------------------------------
  alpha Z        PSCENC =         1.33171444
  Ewald energy   TEWEN  =      3842.37979998
  -Hartree energ DENC   =     -5148.26472856
  -exchange      EXHF   =       108.30987677
  -V(xc)+E(xc)   XCENC  =       137.71584954
  PAW double counting   =      3940.57458690    -3949.42004552
  entropy T*S    EENTRO =        -0.00000000
  eigenvalues    EBANDS =      -700.47842984
  atomic energy  EATOM  =      1612.77738675
  ---------------------------------------------------
  free energy    TOTEN  =      -155.07398954 eV

  energy without entropy =     -155.07398954  energy(sigma->0) =     -155.07398954
  exchange ACFDT corr.  =        -0.00000000  see jH, gK, PRB 81, 115126


--------------------------------------------------------------------------------------------------------




--------------------------------------- Iteration      1(  44)  ---------------------------------------


    POTLOK:  cpu time      0.8541: real time      0.8573
    SETDIJ:  cpu time      0.0024: real time      0.0024
    TRIAL :  cpu time      5.1637: real time      5.1932
    CORREC:  cpu time      0.0003: real time      0.0005
    CHARGE:  cpu time      0.1107: real time      0.1112
    --------------------------------------------
      LOOP:  cpu time      6.1316: real time      6.1650

 eigenvalue-minimisations  :     0
 total energy-change (2. order) :-0.1226623E-05  (-0.3109033E-05)
 number of electron      52.0000003 magnetization 
 augmentation part        1.2893923 magnetization 

 DIPCOR: dipole corrections for dipol
 direction  1 min pos     1, direction  2 min pos     1, direction  3 min pos     1,
 dipolmoment           0.207400      0.811132     -0.148085 electrons x Angstroem
 Tr[quadrupol]        32.204249

 energy correction for charged system         0.000000 eV
 dipol+quadrupol energy correction           -0.002725 eV
 added-field ion interaction         -0.111063 eV  (added to PSCEN)


 Free energy of the ion-electron system (eV)
  ---------------------------------------------------
  alpha Z        PSCENC =         1.33171487
  Ewald energy   TEWEN  =      3842.37979998
  -Hartree energ DENC   =     -5148.26604086
  -exchange      EXHF   =       108.30992113
  -V(xc)+E(xc)   XCENC  =       137.71603064
  PAW double counting   =      3940.57547042    -3949.42093023
  entropy T*S    EENTRO =        -0.00000000
  eigenvalues    EBANDS =      -700.47734347
  atomic energy  EATOM  =      1612.77738675
  ---------------------------------------------------
  free energy    TOTEN  =      -155.07399077 eV

  energy without entropy =     -155.07399077  energy(sigma->0) =     -155.07399077
  exchange ACFDT corr.  =        -0.00000000  see jH, gK, PRB 81, 115126


--------------------------------------------------------------------------------------------------------




--------------------------------------- Iteration      1(  45)  ---------------------------------------


    POTLOK:  cpu time      0.8561: real time      0.8592
    SETDIJ:  cpu time      0.0024: real time      0.0024
    TRIAL :  cpu time      5.1794: real time      5.2085
    CORREC:  cpu time      0.0002: real time      0.0003
    CHARGE:  cpu time      0.1104: real time      0.1110
    --------------------------------------------
      LOOP:  cpu time      6.1490: real time      6.1818

 eigenvalue-minimisations  :     0
 total energy-change (2. order) :-0.8991174E-06  (-0.2976158E-05)
 number of electron      52.0000003 magnetization 
 augmentation part        1.2893924 magnetization 

 DIPCOR: dipole corrections for dipol
 direction  1 min pos     1, direction  2 min pos     1, direction  3 min pos     1,
 dipolmoment           0.207393      0.811124     -0.148118 electrons x Angstroem
 Tr[quadrupol]        32.204471

 energy correction for charged system         0.000000 eV
 dipol+quadrupol energy correction           -0.002725 eV
 added-field ion interaction         -0.111062 eV  (added to PSCEN)


 Free energy of the ion-electron system (eV)
  ---------------------------------------------------
  alpha Z        PSCENC =         1.33171572
  Ewald energy   TEWEN  =      3842.37979998
  -Hartree energ DENC   =     -5148.26436100
  -exchange      EXHF   =       108.30988912
  -V(xc)+E(xc)   XCENC  =       137.71591197
  PAW double counting   =      3940.57341177    -3949.41886982
  entropy T*S    EENTRO =        -0.00000000
  eigenvalues    EBANDS =      -700.47887616
  atomic energy  EATOM  =      1612.77738675
  ---------------------------------------------------
  free energy    TOTEN  =      -155.07399167 eV

  energy without entropy =     -155.07399167  energy(sigma->0) =     -155.07399167
  exchange ACFDT corr.  =        -0.00000000  see jH, gK, PRB 81, 115126


--------------------------------------------------------------------------------------------------------




--------------------------------------- Iteration      1(  46)  ---------------------------------------


    POTLOK:  cpu time      0.8536: real time      0.8571
    SETDIJ:  cpu time      0.0024: real time      0.0025
    TRIAL :  cpu time      5.1553: real time      5.1846
    CORREC:  cpu time      0.0002: real time      0.0003
    CHARGE:  cpu time      0.1108: real time      0.1113
    --------------------------------------------
      LOOP:  cpu time      6.1228: real time      6.1563

 eigenvalue-minimisations  :     0
 total energy-change (2. order) :-0.1064735E-05  (-0.2567597E-05)
 number of electron      52.0000003 magnetization 
 augmentation part        1.2893925 magnetization 

 DIPCOR: dipole corrections for dipol
 direction  1 min pos     1, direction  2 min pos     1, direction  3 min pos     1,
 dipolmoment           0.207402      0.811141     -0.148082 electrons x Angstroem
 Tr[quadrupol]        32.204411

 energy correction for charged system         0.000000 eV
 dipol+quadrupol energy correction           -0.002725 eV
 added-field ion interaction         -0.111064 eV  (added to PSCEN)


 Free energy of the ion-electron system (eV)
  ---------------------------------------------------
  alpha Z        PSCENC =         1.33171363
  Ewald energy   TEWEN  =      3842.37979998
  -Hartree energ DENC   =     -5148.26491237
  -exchange      EXHF   =       108.30991288
  -V(xc)+E(xc)   XCENC  =       137.71595730
  PAW double counting   =      3940.57388268    -3949.41934103
  entropy T*S    EENTRO =        -0.00000000
  eigenvalues    EBANDS =      -700.47839257
  atomic energy  EATOM  =      1612.77738675
  ---------------------------------------------------
  free energy    TOTEN  =      -155.07399273 eV

  energy without entropy =     -155.07399273  energy(sigma->0) =     -155.07399273
  exchange ACFDT corr.  =        -0.00000000  see jH, gK, PRB 81, 115126


--------------------------------------------------------------------------------------------------------




--------------------------------------- Iteration      1(  47)  ---------------------------------------


    POTLOK:  cpu time      0.8509: real time      0.8539
    SETDIJ:  cpu time      0.0060: real time      0.0060
    TRIAL :  cpu time      5.1570: real time      5.1871
    CORREC:  cpu time      0.0001: real time      0.0003
    CHARGE:  cpu time      0.1106: real time      0.1111
    --------------------------------------------
      LOOP:  cpu time      6.1249: real time      6.1587

 eigenvalue-minimisations  :     0
 total energy-change (2. order) :-0.1512240E-05  (-0.2235196E-05)
 number of electron      52.0000003 magnetization 
 augmentation part        1.2893926 magnetization 

 DIPCOR: dipole corrections for dipol
 direction  1 min pos     1, direction  2 min pos     1, direction  3 min pos     1,
 dipolmoment           0.207385      0.811126     -0.148102 electrons x Angstroem
 Tr[quadrupol]        32.204441

 energy correction for charged system         0.000000 eV
 dipol+quadrupol energy correction           -0.002725 eV
 added-field ion interaction         -0.111062 eV  (added to PSCEN)


 Free energy of the ion-electron system (eV)
  ---------------------------------------------------
  alpha Z        PSCENC =         1.33171659
  Ewald energy   TEWEN  =      3842.37979998
  -Hartree energ DENC   =     -5148.26501803
  -exchange      EXHF   =       108.30992358
  -V(xc)+E(xc)   XCENC  =       137.71597377
  PAW double counting   =      3940.57365013    -3949.41910848
  entropy T*S    EENTRO =        -0.00000000
  eigenvalues    EBANDS =      -700.47831853
  atomic energy  EATOM  =      1612.77738675
  ---------------------------------------------------
  free energy    TOTEN  =      -155.07399424 eV

  energy without entropy =     -155.07399424  energy(sigma->0) =     -155.07399424
  exchange ACFDT corr.  =        -0.00000000  see jH, gK, PRB 81, 115126


--------------------------------------------------------------------------------------------------------




--------------------------------------- Iteration      1(  48)  ---------------------------------------


    POTLOK:  cpu time      0.8532: real time      0.8566
    SETDIJ:  cpu time      0.0026: real time      0.0026
    TRIAL :  cpu time      5.1725: real time      5.2018
    CORREC:  cpu time      0.0002: real time      0.0002
    CHARGE:  cpu time      0.1101: real time      0.1109
    --------------------------------------------
      LOOP:  cpu time      6.1389: real time      6.1724

 eigenvalue-minimisations  :     0
 total energy-change (2. order) : 0.3383384E-06  (-0.2173543E-05)
 number of electron      52.0000003 magnetization 
 augmentation part        1.2893921 magnetization 

 DIPCOR: dipole corrections for dipol
 direction  1 min pos     1, direction  2 min pos     1, direction  3 min pos     1,
 dipolmoment           0.207401      0.811130     -0.148074 electrons x Angstroem
 Tr[quadrupol]        32.204440

 energy correction for charged system         0.000000 eV
 dipol+quadrupol energy correction           -0.002725 eV
 added-field ion interaction         -0.111062 eV  (added to PSCEN)


 Free energy of the ion-electron system (eV)
  ---------------------------------------------------
  alpha Z        PSCENC =         1.33171574
  Ewald energy   TEWEN  =      3842.37979998
  -Hartree energ DENC   =     -5148.26456276
  -exchange      EXHF   =       108.30992298
  -V(xc)+E(xc)   XCENC  =       137.71598301
  PAW double counting   =      3940.57372084    -3949.41917850
  entropy T*S    EENTRO =        -0.00000000
  eigenvalues    EBANDS =      -700.47878194
  atomic energy  EATOM  =      1612.77738675
  ---------------------------------------------------
  free energy    TOTEN  =      -155.07399391 eV

  energy without entropy =     -155.07399391  energy(sigma->0) =     -155.07399391
  exchange ACFDT corr.  =        -0.00000000  see jH, gK, PRB 81, 115126


--------------------------------------------------------------------------------------------------------




--------------------------------------- Iteration      1(  49)  ---------------------------------------


    POTLOK:  cpu time      0.8545: real time      0.8577
    SETDIJ:  cpu time      0.0023: real time      0.0023
    TRIAL :  cpu time      5.1547: real time      5.1856
    CORREC:  cpu time      0.0001: real time      0.0001
    CHARGE:  cpu time      0.1102: real time      0.1111
    --------------------------------------------
      LOOP:  cpu time      6.1226: real time      6.1580

 eigenvalue-minimisations  :     0
 total energy-change (2. order) :-0.2012430E-05  (-0.2167915E-05)
 number of electron      52.0000003 magnetization 
 augmentation part        1.2893929 magnetization 

 DIPCOR: dipole corrections for dipol
 direction  1 min pos     1, direction  2 min pos     1, direction  3 min pos     1,
 dipolmoment           0.207384      0.811147     -0.148091 electrons x Angstroem
 Tr[quadrupol]        32.204633

 energy correction for charged system         0.000000 eV
 dipol+quadrupol energy correction           -0.002725 eV
 added-field ion interaction         -0.111062 eV  (added to PSCEN)


 Free energy of the ion-electron system (eV)
  ---------------------------------------------------
  alpha Z        PSCENC =         1.33171571
  Ewald energy   TEWEN  =      3842.37979998
  -Hartree energ DENC   =     -5148.26386772
  -exchange      EXHF   =       108.30991227
  -V(xc)+E(xc)   XCENC  =       137.71592648
  PAW double counting   =      3940.57234860    -3949.41780477
  entropy T*S    EENTRO =        -0.00000000
  eigenvalues    EBANDS =      -700.47941322
  atomic energy  EATOM  =      1612.77738675
  ---------------------------------------------------
  free energy    TOTEN  =      -155.07399592 eV

  energy without entropy =     -155.07399592  energy(sigma->0) =     -155.07399592
  exchange ACFDT corr.  =        -0.00000000  see jH, gK, PRB 81, 115126


--------------------------------------------------------------------------------------------------------




--------------------------------------- Iteration      1(  50)  ---------------------------------------


    POTLOK:  cpu time      0.8534: real time      0.8566
    SETDIJ:  cpu time      0.0025: real time      0.0026
    TRIAL :  cpu time      5.1582: real time      5.1878
    CORREC:  cpu time      0.0001: real time      0.0003
    CHARGE:  cpu time      0.1106: real time      0.1112
    --------------------------------------------
      LOOP:  cpu time      6.1252: real time      6.1587

 eigenvalue-minimisations  :     0
 total energy-change (2. order) : 0.5673392E-06  (-0.2055172E-05)
 number of electron      52.0000003 magnetization 
 augmentation part        1.2893921 magnetization 

 DIPCOR: dipole corrections for dipol
 direction  1 min pos     1, direction  2 min pos     1, direction  3 min pos     1,
 dipolmoment           0.207397      0.811128     -0.148074 electrons x Angstroem
 Tr[quadrupol]        32.204386

 energy correction for charged system         0.000000 eV
 dipol+quadrupol energy correction           -0.002725 eV
 added-field ion interaction         -0.111063 eV  (added to PSCEN)


 Free energy of the ion-electron system (eV)
  ---------------------------------------------------
  alpha Z        PSCENC =         1.33171539
  Ewald energy   TEWEN  =      3842.37979998
  -Hartree energ DENC   =     -5148.26506004
  -exchange      EXHF   =       108.30994715
  -V(xc)+E(xc)   XCENC  =       137.71601278
  PAW double counting   =      3940.57429665    -3949.41975509
  entropy T*S    EENTRO =        -0.00000000
  eigenvalues    EBANDS =      -700.47833892
  atomic energy  EATOM  =      1612.77738675
  ---------------------------------------------------
  free energy    TOTEN  =      -155.07399535 eV

  energy without entropy =     -155.07399535  energy(sigma->0) =     -155.07399535
  exchange ACFDT corr.  =        -0.00000000  see jH, gK, PRB 81, 115126


--------------------------------------------------------------------------------------------------------




--------------------------------------- Iteration      1(  51)  ---------------------------------------


    POTLOK:  cpu time      0.8536: real time      0.8569
    SETDIJ:  cpu time      0.0027: real time      0.0028
    TRIAL :  cpu time      5.2073: real time      5.2524
    CORREC:  cpu time      0.0002: real time      0.0002
    CHARGE:  cpu time      0.1129: real time      0.1144
    --------------------------------------------
      LOOP:  cpu time      6.1771: real time      6.2270

 eigenvalue-minimisations  :     0
 total energy-change (2. order) :-0.9833711E-06  (-0.2047003E-05)
 number of electron      52.0000003 magnetization 
 augmentation part        1.2893924 magnetization 

 DIPCOR: dipole corrections for dipol
 direction  1 min pos     1, direction  2 min pos     1, direction  3 min pos     1,
 dipolmoment           0.207382      0.811144     -0.148096 electrons x Angstroem
 Tr[quadrupol]        32.204672

 energy correction for charged system         0.000000 eV
 dipol+quadrupol energy correction           -0.002725 eV
 added-field ion interaction         -0.111063 eV  (added to PSCEN)


 Free energy of the ion-electron system (eV)
  ---------------------------------------------------
  alpha Z        PSCENC =         1.33171522
  Ewald energy   TEWEN  =      3842.37979998
  -Hartree energ DENC   =     -5148.26376189
  -exchange      EXHF   =       108.30992223
  -V(xc)+E(xc)   XCENC  =       137.71595345
  PAW double counting   =      3940.57223018    -3949.41768596
  entropy T*S    EENTRO =        -0.00000000
  eigenvalues    EBANDS =      -700.47955630
  atomic energy  EATOM  =      1612.77738675
  ---------------------------------------------------
  free energy    TOTEN  =      -155.07399633 eV

  energy without entropy =     -155.07399633  energy(sigma->0) =     -155.07399633
  exchange ACFDT corr.  =        -0.00000000  see jH, gK, PRB 81, 115126


--------------------------------------------------------------------------------------------------------




--------------------------------------- Iteration      1(  52)  ---------------------------------------


    POTLOK:  cpu time      0.8605: real time      0.8649
    SETDIJ:  cpu time      0.0045: real time      0.0054
    TRIAL :  cpu time      5.1668: real time      5.2031
    CORREC:  cpu time      0.0002: real time      0.0002
    CHARGE:  cpu time      0.1105: real time      0.1113
    --------------------------------------------
      LOOP:  cpu time      6.1432: real time      6.1856

 eigenvalue-minimisations  :     0
 total energy-change (2. order) :-0.4443009E-06  (-0.1933806E-05)
 number of electron      52.0000003 magnetization 
 augmentation part        1.2893923 magnetization 

 DIPCOR: dipole corrections for dipol
 direction  1 min pos     1, direction  2 min pos     1, direction  3 min pos     1,
 dipolmoment           0.207394      0.811135     -0.148058 electrons x Angstroem
 Tr[quadrupol]        32.204495

 energy correction for charged system         0.000000 eV
 dipol+quadrupol energy correction           -0.002725 eV
 added-field ion interaction         -0.111061 eV  (added to PSCEN)


 Free energy of the ion-electron system (eV)
  ---------------------------------------------------
  alpha Z        PSCENC =         1.33171675
  Ewald energy   TEWEN  =      3842.37979998
  -Hartree energ DENC   =     -5148.26450272
  -exchange      EXHF   =       108.30994385
  -V(xc)+E(xc)   XCENC  =       137.71598678
  PAW double counting   =      3940.57344243    -3949.41889939
  entropy T*S    EENTRO =        -0.00000000
  eigenvalues    EBANDS =      -700.47887121
  atomic energy  EATOM  =      1612.77738675
  ---------------------------------------------------
  free energy    TOTEN  =      -155.07399678 eV

  energy without entropy =     -155.07399678  energy(sigma->0) =     -155.07399678
  exchange ACFDT corr.  =        -0.00000000  see jH, gK, PRB 81, 115126


--------------------------------------------------------------------------------------------------------




--------------------------------------- Iteration      1(  53)  ---------------------------------------


    POTLOK:  cpu time      0.8521: real time      0.8556
    SETDIJ:  cpu time      0.0045: real time      0.0045
    TRIAL :  cpu time      5.1733: real time      5.2021
    CORREC:  cpu time      0.0001: real time      0.0001
    CHARGE:  cpu time      0.1104: real time      0.1113
    --------------------------------------------
      LOOP:  cpu time      6.1409: real time      6.1762

 eigenvalue-minimisations  :     0
 total energy-change (2. order) :-0.6057171E-06  (-0.2033456E-05)
 number of electron      52.0000003 magnetization 
 augmentation part        1.2893924 magnetization 

 DIPCOR: dipole corrections for dipol
 direction  1 min pos     1, direction  2 min pos     1, direction  3 min pos     1,
 dipolmoment           0.207380      0.811137     -0.148091 electrons x Angstroem
 Tr[quadrupol]        32.204616

 energy correction for charged system         0.000000 eV
 dipol+quadrupol energy correction           -0.002725 eV
 added-field ion interaction         -0.111062 eV  (added to PSCEN)


 Free energy of the ion-electron system (eV)
  ---------------------------------------------------
  alpha Z        PSCENC =         1.33171634
  Ewald energy   TEWEN  =      3842.37979998
  -Hartree energ DENC   =     -5148.26391910
  -exchange      EXHF   =       108.30993354
  -V(xc)+E(xc)   XCENC  =       137.71595023
  PAW double counting   =      3940.57225602    -3949.41771208
  entropy T*S    EENTRO =        -0.00000000
  eigenvalues    EBANDS =      -700.47940907
  atomic energy  EATOM  =      1612.77738675
  ---------------------------------------------------
  free energy    TOTEN  =      -155.07399738 eV

  energy without entropy =     -155.07399738  energy(sigma->0) =     -155.07399738
  exchange ACFDT corr.  =        -0.00000000  see jH, gK, PRB 81, 115126


--------------------------------------------------------------------------------------------------------




--------------------------------------- Iteration      1(  54)  ---------------------------------------


    POTLOK:  cpu time      0.8555: real time      0.8587
    SETDIJ:  cpu time      0.0025: real time      0.0025
    TRIAL :  cpu time      5.1710: real time      5.2002
    CORREC:  cpu time      0.0001: real time      0.0001
    CHARGE:  cpu time      0.1104: real time      0.1110
    --------------------------------------------
      LOOP:  cpu time      6.1398: real time      6.1731

 eigenvalue-minimisations  :     0
 total energy-change (2. order) : 0.8238203E-07  (-0.1984786E-05)
 number of electron      52.0000003 magnetization 
 augmentation part        1.2893923 magnetization 

 DIPCOR: dipole corrections for dipol
 direction  1 min pos     1, direction  2 min pos     1, direction  3 min pos     1,
 dipolmoment           0.207394      0.811142     -0.148051 electrons x Angstroem
 Tr[quadrupol]        32.204514

 energy correction for charged system         0.000000 eV
 dipol+quadrupol energy correction           -0.002725 eV
 added-field ion interaction         -0.111062 eV  (added to PSCEN)


 Free energy of the ion-electron system (eV)
  ---------------------------------------------------
  alpha Z        PSCENC =         1.33171609
  Ewald energy   TEWEN  =      3842.37979998
  -Hartree energ DENC   =     -5148.26470355
  -exchange      EXHF   =       108.30996025
  -V(xc)+E(xc)   XCENC  =       137.71602960
  PAW double counting   =      3940.57363652    -3949.41909339
  entropy T*S    EENTRO =        -0.00000000
  eigenvalues    EBANDS =      -700.47872955
  atomic energy  EATOM  =      1612.77738675
  ---------------------------------------------------
  free energy    TOTEN  =      -155.07399730 eV

  energy without entropy =     -155.07399730  energy(sigma->0) =     -155.07399730
  exchange ACFDT corr.  =        -0.00000000  see jH, gK, PRB 81, 115126


--------------------------------------------------------------------------------------------------------




--------------------------------------- Iteration      1(  55)  ---------------------------------------


    POTLOK:  cpu time      0.8556: real time      0.8588
    SETDIJ:  cpu time      0.0059: real time      0.0060
    TRIAL :  cpu time      5.1779: real time      5.2072
    CORREC:  cpu time      0.0002: real time      0.0002
    CHARGE:  cpu time      0.1103: real time      0.1111
    --------------------------------------------
      LOOP:  cpu time      6.1503: real time      6.1836

 eigenvalue-minimisations  :     0
 total energy-change (2. order) :-0.7031103E-06  (-0.1768853E-05)
 number of electron      52.0000003 magnetization 
 augmentation part        1.2893924 magnetization 

 DIPCOR: dipole corrections for dipol
 direction  1 min pos     1, direction  2 min pos     1, direction  3 min pos     1,
 dipolmoment           0.207384      0.811144     -0.148083 electrons x Angstroem
 Tr[quadrupol]        32.204702

 energy correction for charged system         0.000000 eV
 dipol+quadrupol energy correction           -0.002725 eV
 added-field ion interaction         -0.111062 eV  (added to PSCEN)


 Free energy of the ion-electron system (eV)
  ---------------------------------------------------
  alpha Z        PSCENC =         1.33171571
  Ewald energy   TEWEN  =      3842.37979998
  -Hartree energ DENC   =     -5148.26350691
  -exchange      EXHF   =       108.30993442
  -V(xc)+E(xc)   XCENC  =       137.71593342
  PAW double counting   =      3940.57229777    -3949.41775333
  entropy T*S    EENTRO =        -0.00000000
  eigenvalues    EBANDS =      -700.47980581
  atomic energy  EATOM  =      1612.77738675
  ---------------------------------------------------
  free energy    TOTEN  =      -155.07399800 eV

  energy without entropy =     -155.07399800  energy(sigma->0) =     -155.07399800
  exchange ACFDT corr.  =        -0.00000000  see jH, gK, PRB 81, 115126


--------------------------------------------------------------------------------------------------------




--------------------------------------- Iteration      1(  56)  ---------------------------------------


    POTLOK:  cpu time      0.8550: real time      0.8582
    SETDIJ:  cpu time      0.0033: real time      0.0033
    TRIAL :  cpu time      5.1399: real time      5.1700
    CORREC:  cpu time      0.0001: real time      0.0001
    CHARGE:  cpu time      0.1104: real time      0.1112
    --------------------------------------------
      LOOP:  cpu time      6.1092: real time      6.1433

 eigenvalue-minimisations  :     0
 total energy-change (2. order) : 0.4956928E-06  (-0.1473776E-05)
 number of electron      52.0000003 magnetization 
 augmentation part        1.2893923 magnetization 

 DIPCOR: dipole corrections for dipol
 direction  1 min pos     1, direction  2 min pos     1, direction  3 min pos     1,
 dipolmoment           0.207388      0.811137     -0.148056 electrons x Angstroem
 Tr[quadrupol]        32.204533

 energy correction for charged system         0.000000 eV
 dipol+quadrupol energy correction           -0.002725 eV
 added-field ion interaction         -0.111062 eV  (added to PSCEN)


 Free energy of the ion-electron system (eV)
  ---------------------------------------------------
  alpha Z        PSCENC =         1.33171655
  Ewald energy   TEWEN  =      3842.37979998
  -Hartree energ DENC   =     -5148.26441917
  -exchange      EXHF   =       108.30995997
  -V(xc)+E(xc)   XCENC  =       137.71602352
  PAW double counting   =      3940.57331084    -3949.41876709
  entropy T*S    EENTRO =        -0.00000000
  eigenvalues    EBANDS =      -700.47900887
  atomic energy  EATOM  =      1612.77738675
  ---------------------------------------------------
  free energy    TOTEN  =      -155.07399751 eV

  energy without entropy =     -155.07399751  energy(sigma->0) =     -155.07399751
  exchange ACFDT corr.  =        -0.00000000  see jH, gK, PRB 81, 115126


--------------------------------------------------------------------------------------------------------




--------------------------------------- Iteration      1(  57)  ---------------------------------------


    POTLOK:  cpu time      0.8537: real time      0.8573
    SETDIJ:  cpu time      0.0026: real time      0.0026
    TRIAL :  cpu time      5.1447: real time      5.1741
    CORREC:  cpu time      0.0002: real time      0.0002
    CHARGE:  cpu time      0.1098: real time      0.1112
    --------------------------------------------
      LOOP:  cpu time      6.1114: real time      6.1458

 eigenvalue-minimisations  :     0
 total energy-change (2. order) :-0.9268724E-06  (-0.1479837E-05)
 number of electron      52.0000003 magnetization 
 augmentation part        1.2893924 magnetization 

 DIPCOR: dipole corrections for dipol
 direction  1 min pos     1, direction  2 min pos     1, direction  3 min pos     1,
 dipolmoment           0.207383      0.811141     -0.148080 electrons x Angstroem
 Tr[quadrupol]        32.204661

 energy correction for charged system         0.000000 eV
 dipol+quadrupol energy correction           -0.002725 eV
 added-field ion interaction         -0.111062 eV  (added to PSCEN)


 Free energy of the ion-electron system (eV)
  ---------------------------------------------------
  alpha Z        PSCENC =         1.33171639
  Ewald energy   TEWEN  =      3842.37979998
  -Hartree energ DENC   =     -5148.26399633
  -exchange      EXHF   =       108.30995179
  -V(xc)+E(xc)   XCENC  =       137.71593833
  PAW double counting   =      3940.57264421    -3949.41810001
  entropy T*S    EENTRO =        -0.00000000
  eigenvalues    EBANDS =      -700.47933954
  atomic energy  EATOM  =      1612.77738675
  ---------------------------------------------------
  free energy    TOTEN  =      -155.07399844 eV

  energy without entropy =     -155.07399844  energy(sigma->0) =     -155.07399844
  exchange ACFDT corr.  =        -0.00000000  see jH, gK, PRB 81, 115126


--------------------------------------------------------------------------------------------------------




--------------------------------------- Iteration      1(  58)  ---------------------------------------


    POTLOK:  cpu time      0.8549: real time      0.8577
    SETDIJ:  cpu time      0.0023: real time      0.0023
    TRIAL :  cpu time      5.1681: real time      5.1977
    CORREC:  cpu time      0.0001: real time      0.0001
    CHARGE:  cpu time      0.1104: real time      0.1112
    --------------------------------------------
      LOOP:  cpu time      6.1363: real time      6.1694

 eigenvalue-minimisations  :     0
 total energy-change (2. order) : 0.8208881E-06  (-0.1916696E-05)
 number of electron      52.0000003 magnetization 
 augmentation part        1.2893922 magnetization 

 DIPCOR: dipole corrections for dipol
 direction  1 min pos     1, direction  2 min pos     1, direction  3 min pos     1,
 dipolmoment           0.207393      0.811147     -0.148049 electrons x Angstroem
 Tr[quadrupol]        32.204554

 energy correction for charged system         0.000000 eV
 dipol+quadrupol energy correction           -0.002725 eV
 added-field ion interaction         -0.111063 eV  (added to PSCEN)


 Free energy of the ion-electron system (eV)
  ---------------------------------------------------
  alpha Z        PSCENC =         1.33171507
  Ewald energy   TEWEN  =      3842.37979998
  -Hartree energ DENC   =     -5148.26431152
  -exchange      EXHF   =       108.30996698
  -V(xc)+E(xc)   XCENC  =       137.71605289
  PAW double counting   =      3940.57312640    -3949.41858219
  entropy T*S    EENTRO =        -0.00000000
  eigenvalues    EBANDS =      -700.47915197
  atomic energy  EATOM  =      1612.77738675
  ---------------------------------------------------
  free energy    TOTEN  =      -155.07399761 eV

  energy without entropy =     -155.07399761  energy(sigma->0) =     -155.07399761
  exchange ACFDT corr.  =        -0.00000000  see jH, gK, PRB 81, 115126


--------------------------------------------------------------------------------------------------------




--------------------------------------- Iteration      1(  59)  ---------------------------------------


    POTLOK:  cpu time      0.8538: real time      0.8572
    SETDIJ:  cpu time      0.0026: real time      0.0026
    TRIAL :  cpu time      5.1603: real time      5.1913
    CORREC:  cpu time      0.0003: real time      0.0003
    CHARGE:  cpu time      0.1104: real time      0.1112
    --------------------------------------------
      LOOP:  cpu time      6.1277: real time      6.1642

 eigenvalue-minimisations  :     0
 total energy-change (2. order) :-0.1663763E-05  (-0.1959558E-05)
 number of electron      52.0000003 magnetization 
 augmentation part        1.2893924 magnetization 

 DIPCOR: dipole corrections for dipol
 direction  1 min pos     1, direction  2 min pos     1, direction  3 min pos     1,
 dipolmoment           0.207381      0.811131     -0.148075 electrons x Angstroem
 Tr[quadrupol]        32.204737

 energy correction for charged system         0.000000 eV
 dipol+quadrupol energy correction           -0.002725 eV
 added-field ion interaction         -0.111061 eV  (added to PSCEN)


 Free energy of the ion-electron system (eV)
  ---------------------------------------------------
  alpha Z        PSCENC =         1.33171746
  Ewald energy   TEWEN  =      3842.37979998
  -Hartree energ DENC   =     -5148.26352414
  -exchange      EXHF   =       108.30994845
  -V(xc)+E(xc)   XCENC  =       137.71592182
  PAW double counting   =      3940.57232584    -3949.41778114
  entropy T*S    EENTRO =        -0.00000000
  eigenvalues    EBANDS =      -700.47979431
  atomic energy  EATOM  =      1612.77738675
  ---------------------------------------------------
  free energy    TOTEN  =      -155.07399928 eV

  energy without entropy =     -155.07399928  energy(sigma->0) =     -155.07399928
  exchange ACFDT corr.  =        -0.00000000  see jH, gK, PRB 81, 115126


--------------------------------------------------------------------------------------------------------




--------------------------------------- Iteration      1(  60)  ---------------------------------------


    POTLOK:  cpu time      0.8536: real time      0.8568
    SETDIJ:  cpu time      0.0029: real time      0.0029
    TRIAL :  cpu time      5.1487: real time      5.1779
    CORREC:  cpu time      0.0001: real time      0.0001
    CHARGE:  cpu time      0.1103: real time      0.1111
    --------------------------------------------
      LOOP:  cpu time      6.1160: real time      6.1493

 eigenvalue-minimisations  :     0
 total energy-change (2. order) : 0.1155097E-05  (-0.1662403E-05)
 number of electron      52.0000003 magnetization 
 augmentation part        1.2893923 magnetization 

 DIPCOR: dipole corrections for dipol
 direction  1 min pos     1, direction  2 min pos     1, direction  3 min pos     1,
 dipolmoment           0.207384      0.811150     -0.148050 electrons x Angstroem
 Tr[quadrupol]        32.204540

 energy correction for charged system         0.000000 eV
 dipol+quadrupol energy correction           -0.002725 eV
 added-field ion interaction         -0.111062 eV  (added to PSCEN)


 Free energy of the ion-electron system (eV)
  ---------------------------------------------------
  alpha Z        PSCENC =         1.33171648
  Ewald energy   TEWEN  =      3842.37979998
  -Hartree energ DENC   =     -5148.26450722
  -exchange      EXHF   =       108.30997399
  -V(xc)+E(xc)   XCENC  =       137.71602769
  PAW double counting   =      3940.57325309    -3949.41870901
  entropy T*S    EENTRO =        -0.00000000
  eigenvalues    EBANDS =      -700.47893988
  atomic energy  EATOM  =      1612.77738675
  ---------------------------------------------------
  free energy    TOTEN  =      -155.07399812 eV

  energy without entropy =     -155.07399812  energy(sigma->0) =     -155.07399812
  exchange ACFDT corr.  =        -0.00000000  see jH, gK, PRB 81, 115126


--------------------------------------------------------------------------------------------------------




--------------------------------------- Iteration      1(  61)  ---------------------------------------


    POTLOK:  cpu time      0.8516: real time      0.8548
    SETDIJ:  cpu time      0.0055: real time      0.0055
    TRIAL :  cpu time      5.1628: real time      5.1920
    CORREC:  cpu time      0.0001: real time      0.0001
    CHARGE:  cpu time      0.1104: real time      0.1111
    --------------------------------------------
      LOOP:  cpu time      6.1308: real time      6.1639

 eigenvalue-minimisations  :     0
 total energy-change (2. order) :-0.1316867E-05  (-0.1516244E-05)
 number of electron      52.0000003 magnetization 
 augmentation part        1.2893923 magnetization 

 DIPCOR: dipole corrections for dipol
 direction  1 min pos     1, direction  2 min pos     1, direction  3 min pos     1,
 dipolmoment           0.207392      0.811136     -0.148070 electrons x Angstroem
 Tr[quadrupol]        32.204705

 energy correction for charged system         0.000000 eV
 dipol+quadrupol energy correction           -0.002725 eV
 added-field ion interaction         -0.111062 eV  (added to PSCEN)


 Free energy of the ion-electron system (eV)
  ---------------------------------------------------
  alpha Z        PSCENC =         1.33171579
  Ewald energy   TEWEN  =      3842.37979998
  -Hartree energ DENC   =     -5148.26368585
  -exchange      EXHF   =       108.30996102
  -V(xc)+E(xc)   XCENC  =       137.71600212
  PAW double counting   =      3940.57237320    -3949.41782829
  entropy T*S    EENTRO =        -0.00000000
  eigenvalues    EBANDS =      -700.47972418
  atomic energy  EATOM  =      1612.77738675
  ---------------------------------------------------
  free energy    TOTEN  =      -155.07399944 eV

  energy without entropy =     -155.07399944  energy(sigma->0) =     -155.07399944
  exchange ACFDT corr.  =        -0.00000000  see jH, gK, PRB 81, 115126


--------------------------------------------------------------------------------------------------------




--------------------------------------- Iteration      1(  62)  ---------------------------------------


    POTLOK:  cpu time      0.8507: real time      0.8537
    SETDIJ:  cpu time      0.0062: real time      0.0062
    TRIAL :  cpu time      5.1471: real time      5.1762
    CORREC:  cpu time      0.0001: real time      0.0001
    CHARGE:  cpu time      0.1103: real time      0.1111
    --------------------------------------------
      LOOP:  cpu time      6.1147: real time      6.1477

 eigenvalue-minimisations  :     0
 total energy-change (2. order) :-0.1770513E-07  (-0.1459682E-05)
 number of electron      52.0000003 magnetization 
 augmentation part        1.2893924 magnetization 

 DIPCOR: dipole corrections for dipol
 direction  1 min pos     1, direction  2 min pos     1, direction  3 min pos     1,
 dipolmoment           0.207389      0.811150     -0.148045 electrons x Angstroem
 Tr[quadrupol]        32.204633

 energy correction for charged system         0.000000 eV
 dipol+quadrupol energy correction           -0.002725 eV
 added-field ion interaction         -0.111062 eV  (added to PSCEN)


 Free energy of the ion-electron system (eV)
  ---------------------------------------------------
  alpha Z        PSCENC =         1.33171584
  Ewald energy   TEWEN  =      3842.37979998
  -Hartree energ DENC   =     -5148.26404232
  -exchange      EXHF   =       108.30996565
  -V(xc)+E(xc)   XCENC  =       137.71596216
  PAW double counting   =      3940.57282707    -3949.41828259
  entropy T*S    EENTRO =        -0.00000000
  eigenvalues    EBANDS =      -700.47933200
  atomic energy  EATOM  =      1612.77738675
  ---------------------------------------------------
  free energy    TOTEN  =      -155.07399946 eV

  energy without entropy =     -155.07399946  energy(sigma->0) =     -155.07399946
  exchange ACFDT corr.  =        -0.00000000  see jH, gK, PRB 81, 115126


--------------------------------------------------------------------------------------------------------




--------------------------------------- Iteration      1(  63)  ---------------------------------------


    POTLOK:  cpu time      0.8545: real time      0.8578
    SETDIJ:  cpu time      0.0024: real time      0.0024
    TRIAL :  cpu time      5.1556: real time      5.1846
    CORREC:  cpu time      0.0002: real time      0.0004
    CHARGE:  cpu time      0.1103: real time      0.1109
    --------------------------------------------
      LOOP:  cpu time      6.1348: real time      6.1696

 eigenvalue-minimisations  :     0
 total energy-change (2. order) : 0.2378447E-06  (-0.1614025E-05)
 number of electron      52.0000003 magnetization 
 augmentation part        1.2893923 magnetization 

 DIPCOR: dipole corrections for dipol
 direction  1 min pos     1, direction  2 min pos     1, direction  3 min pos     1,
 dipolmoment           0.207379      0.811147     -0.148067 electrons x Angstroem
 Tr[quadrupol]        32.204680

 energy correction for charged system         0.000000 eV
 dipol+quadrupol energy correction           -0.002725 eV
 added-field ion interaction         -0.111061 eV  (added to PSCEN)


 Free energy of the ion-electron system (eV)
  ---------------------------------------------------
  alpha Z        PSCENC =         1.33171684
  Ewald energy   TEWEN  =      3842.37979998
  -Hartree energ DENC   =     -5148.26405275
  -exchange      EXHF   =       108.30997402
  -V(xc)+E(xc)   XCENC  =       137.71604204
  PAW double counting   =      3940.57266403    -3949.41811936
  entropy T*S    EENTRO =        -0.00000000
  eigenvalues    EBANDS =      -700.47941078
  atomic energy  EATOM  =      1612.77738675
  ---------------------------------------------------
  free energy    TOTEN  =      -155.07399922 eV

  energy without entropy =     -155.07399922  energy(sigma->0) =     -155.07399922
  exchange ACFDT corr.  =        -0.00000000  see jH, gK, PRB 81, 115126


--------------------------------------------------------------------------------------------------------




--------------------------------------- Iteration      1(  64)  ---------------------------------------


    POTLOK:  cpu time      0.8528: real time      0.8561
    SETDIJ:  cpu time      0.0026: real time      0.0026
    TRIAL :  cpu time      5.1685: real time      5.1980
    CORREC:  cpu time      0.0001: real time      0.0001
    CHARGE:  cpu time      0.1104: real time      0.1112
    --------------------------------------------
      LOOP:  cpu time      6.1347: real time      6.1684

 eigenvalue-minimisations  :     0
 total energy-change (2. order) : 0.3866753E-06  (-0.1678110E-05)
 number of electron      52.0000003 magnetization 
 augmentation part        1.2893921 magnetization 

 DIPCOR: dipole corrections for dipol
 direction  1 min pos     1, direction  2 min pos     1, direction  3 min pos     1,
 dipolmoment           0.207397      0.811131     -0.148042 electrons x Angstroem
 Tr[quadrupol]        32.204651

 energy correction for charged system         0.000000 eV
 dipol+quadrupol energy correction           -0.002725 eV
 added-field ion interaction         -0.111061 eV  (added to PSCEN)


 Free energy of the ion-electron system (eV)
  ---------------------------------------------------
  alpha Z        PSCENC =         1.33171678
  Ewald energy   TEWEN  =      3842.37979998
  -Hartree energ DENC   =     -5148.26369829
  -exchange      EXHF   =       108.30996751
  -V(xc)+E(xc)   XCENC  =       137.71598653
  PAW double counting   =      3940.57303705    -3949.41849251
  entropy T*S    EENTRO =        -0.00000000
  eigenvalues    EBANDS =      -700.47970264
  atomic energy  EATOM  =      1612.77738675
  ---------------------------------------------------
  free energy    TOTEN  =      -155.07399883 eV

  energy without entropy =     -155.07399883  energy(sigma->0) =     -155.07399883
  exchange ACFDT corr.  =        -0.00000000  see jH, gK, PRB 81, 115126


--------------------------------------------------------------------------------------------------------




--------------------------------------- Iteration      1(  65)  ---------------------------------------


    POTLOK:  cpu time      0.8545: real time      0.8576
    SETDIJ:  cpu time      0.0022: real time      0.0022
    TRIAL :  cpu time      5.1411: real time      5.1706
    CORREC:  cpu time      0.0001: real time      0.0001
    CHARGE:  cpu time      0.1104: real time      0.1112
    --------------------------------------------
      LOOP:  cpu time      6.1085: real time      6.1420

 eigenvalue-minimisations  :     0
 total energy-change (2. order) :-0.5906622E-06  (-0.1495567E-05)
 number of electron      52.0000003 magnetization 
 augmentation part        1.2893924 magnetization 

 DIPCOR: dipole corrections for dipol
 direction  1 min pos     1, direction  2 min pos     1, direction  3 min pos     1,
 dipolmoment           0.207373      0.811156     -0.148061 electrons x Angstroem
 Tr[quadrupol]        32.204775

 energy correction for charged system         0.000000 eV
 dipol+quadrupol energy correction           -0.002725 eV
 added-field ion interaction         -0.111062 eV  (added to PSCEN)


 Free energy of the ion-electron system (eV)
  ---------------------------------------------------
  alpha Z        PSCENC =         1.33171621
  Ewald energy   TEWEN  =      3842.37979998
  -Hartree energ DENC   =     -5148.26345133
  -exchange      EXHF   =       108.30996096
  -V(xc)+E(xc)   XCENC  =       137.71598106
  PAW double counting   =      3940.57208164    -3949.41753586
  entropy T*S    EENTRO =        -0.00000000
  eigenvalues    EBANDS =      -700.47993883
  atomic energy  EATOM  =      1612.77738675
  ---------------------------------------------------
  free energy    TOTEN  =      -155.07399942 eV

  energy without entropy =     -155.07399942  energy(sigma->0) =     -155.07399942
  exchange ACFDT corr.  =        -0.00000000  see jH, gK, PRB 81, 115126


--------------------------------------------------------------------------------------------------------




--------------------------------------- Iteration      1(  66)  ---------------------------------------


    POTLOK:  cpu time      0.8545: real time      0.8578
    SETDIJ:  cpu time      0.0026: real time      0.0026
    TRIAL :  cpu time      5.1762: real time      5.2050
    CORREC:  cpu time      0.0001: real time      0.0001
    CHARGE:  cpu time      0.1104: real time      0.1112
    --------------------------------------------
      LOOP:  cpu time      6.1441: real time      6.1770

 eigenvalue-minimisations  :     0
 total energy-change (2. order) : 0.4417861E-06  (-0.1239504E-05)
 number of electron      52.0000003 magnetization 
 augmentation part        1.2893921 magnetization 

 DIPCOR: dipole corrections for dipol
 direction  1 min pos     1, direction  2 min pos     1, direction  3 min pos     1,
 dipolmoment           0.207394      0.811132     -0.148041 electrons x Angstroem
 Tr[quadrupol]        32.204612

 energy correction for charged system         0.000000 eV
 dipol+quadrupol energy correction           -0.002725 eV
 added-field ion interaction         -0.111061 eV  (added to PSCEN)


 Free energy of the ion-electron system (eV)
  ---------------------------------------------------
  alpha Z        PSCENC =         1.33171691
  Ewald energy   TEWEN  =      3842.37979998
  -Hartree energ DENC   =     -5148.26409572
  -exchange      EXHF   =       108.30998289
  -V(xc)+E(xc)   XCENC  =       137.71602274
  PAW double counting   =      3940.57348111    -3949.41893671
  entropy T*S    EENTRO =        -0.00000000
  eigenvalues    EBANDS =      -700.47935694
  atomic energy  EATOM  =      1612.77738675
  ---------------------------------------------------
  free energy    TOTEN  =      -155.07399898 eV

  energy without entropy =     -155.07399898  energy(sigma->0) =     -155.07399898
  exchange ACFDT corr.  =        -0.00000000  see jH, gK, PRB 81, 115126


--------------------------------------------------------------------------------------------------------




--------------------------------------- Iteration      1(  67)  ---------------------------------------


    POTLOK:  cpu time      0.8525: real time      0.8556
    SETDIJ:  cpu time      0.0040: real time      0.0040
    TRIAL :  cpu time      5.1651: real time      5.1944
    CORREC:  cpu time      0.0002: real time      0.0002
    CHARGE:  cpu time      0.1103: real time      0.1112
    --------------------------------------------
      LOOP:  cpu time      6.1325: real time      6.1658

 eigenvalue-minimisations  :     0
 total energy-change (2. order) :-0.1309123E-05  (-0.1185010E-05)
 number of electron      52.0000003 magnetization 
 augmentation part        1.2893924 magnetization 

 DIPCOR: dipole corrections for dipol
 direction  1 min pos     1, direction  2 min pos     1, direction  3 min pos     1,
 dipolmoment           0.207380      0.811149     -0.148057 electrons x Angstroem
 Tr[quadrupol]        32.204753

 energy correction for charged system         0.000000 eV
 dipol+quadrupol energy correction           -0.002725 eV
 added-field ion interaction         -0.111061 eV  (added to PSCEN)


 Free energy of the ion-electron system (eV)
  ---------------------------------------------------
  alpha Z        PSCENC =         1.33171680
  Ewald energy   TEWEN  =      3842.37979998
  -Hartree energ DENC   =     -5148.26358052
  -exchange      EXHF   =       108.30996696
  -V(xc)+E(xc)   XCENC  =       137.71595792
  PAW double counting   =      3940.57226000    -3949.41771452
  entropy T*S    EENTRO =        -0.00000000
  eigenvalues    EBANDS =      -700.47979368
  atomic energy  EATOM  =      1612.77738675
  ---------------------------------------------------
  free energy    TOTEN  =      -155.07400029 eV

  energy without entropy =     -155.07400029  energy(sigma->0) =     -155.07400029
  exchange ACFDT corr.  =        -0.00000000  see jH, gK, PRB 81, 115126


--------------------------------------------------------------------------------------------------------




--------------------------------------- Iteration      1(  68)  ---------------------------------------


    POTLOK:  cpu time      0.8551: real time      0.8582
    SETDIJ:  cpu time      0.0038: real time      0.0039
    TRIAL :  cpu time      5.1422: real time      5.1719
    CORREC:  cpu time      0.0002: real time      0.0002
    CHARGE:  cpu time      0.1104: real time      0.1112
    --------------------------------------------
      LOOP:  cpu time      6.1120: real time      6.1455

 eigenvalue-minimisations  :     0
 total energy-change (2. order) : 0.6895634E-06  (-0.1153813E-05)
 number of electron      52.0000003 magnetization 
 augmentation part        1.2893920 magnetization 

 DIPCOR: dipole corrections for dipol
 direction  1 min pos     1, direction  2 min pos     1, direction  3 min pos     1,
 dipolmoment           0.207388      0.811142     -0.148042 electrons x Angstroem
 Tr[quadrupol]        32.204612

 energy correction for charged system         0.000000 eV
 dipol+quadrupol energy correction           -0.002725 eV
 added-field ion interaction         -0.111062 eV  (added to PSCEN)


 Free energy of the ion-electron system (eV)
  ---------------------------------------------------
  alpha Z        PSCENC =         1.33171644
  Ewald energy   TEWEN  =      3842.37979998
  -Hartree energ DENC   =     -5148.26438164
  -exchange      EXHF   =       108.30999018
  -V(xc)+E(xc)   XCENC  =       137.71607536
  PAW double counting   =      3940.57355476    -3949.41901034
  entropy T*S    EENTRO =        -0.00000000
  eigenvalues    EBANDS =      -700.47913109
  atomic energy  EATOM  =      1612.77738675
  ---------------------------------------------------
  free energy    TOTEN  =      -155.07399960 eV

  energy without entropy =     -155.07399960  energy(sigma->0) =     -155.07399960
  exchange ACFDT corr.  =        -0.00000000  see jH, gK, PRB 81, 115126


--------------------------------------------------------------------------------------------------------




--------------------------------------- Iteration      1(  69)  ---------------------------------------


    POTLOK:  cpu time      0.8543: real time      0.8574
    SETDIJ:  cpu time      0.0036: real time      0.0036
    TRIAL :  cpu time      5.1778: real time      5.2093
    CORREC:  cpu time      0.0001: real time      0.0001
    CHARGE:  cpu time      0.1103: real time      0.1112
    --------------------------------------------
      LOOP:  cpu time      6.1465: real time      6.1824

 eigenvalue-minimisations  :     0
 total energy-change (2. order) :-0.7607778E-06  (-0.1303598E-05)
 number of electron      52.0000003 magnetization 
 augmentation part        1.2893924 magnetization 

 DIPCOR: dipole corrections for dipol
 direction  1 min pos     1, direction  2 min pos     1, direction  3 min pos     1,
 dipolmoment           0.207382      0.811145     -0.148059 electrons x Angstroem
 Tr[quadrupol]        32.204848

 energy correction for charged system         0.000000 eV
 dipol+quadrupol energy correction           -0.002725 eV
 added-field ion interaction         -0.111061 eV  (added to PSCEN)


 Free energy of the ion-electron system (eV)
  ---------------------------------------------------
  alpha Z        PSCENC =         1.33171743
  Ewald energy   TEWEN  =      3842.37979998
  -Hartree energ DENC   =     -5148.26286086
  -exchange      EXHF   =       108.30995947
  -V(xc)+E(xc)   XCENC  =       137.71593213
  PAW double counting   =      3940.57197957    -3949.41743330
  entropy T*S    EENTRO =        -0.00000000
  eigenvalues    EBANDS =      -700.48048153
  atomic energy  EATOM  =      1612.77738675
  ---------------------------------------------------
  free energy    TOTEN  =      -155.07400036 eV

  energy without entropy =     -155.07400036  energy(sigma->0) =     -155.07400036
  exchange ACFDT corr.  =        -0.00000000  see jH, gK, PRB 81, 115126


--------------------------------------------------------------------------------------------------------




--------------------------------------- Iteration      1(  70)  ---------------------------------------


    POTLOK:  cpu time      0.8535: real time      0.8569
    SETDIJ:  cpu time      0.0027: real time      0.0027
    TRIAL :  cpu time      5.1605: real time      5.1901
    CORREC:  cpu time      0.0001: real time      0.0001
    CHARGE:  cpu time      0.1103: real time      0.1111
    --------------------------------------------
      LOOP:  cpu time      6.1275: real time      6.1612

 eigenvalue-minimisations  :     0
 total energy-change (2. order) : 0.4188632E-06  (-0.1256740E-05)
 number of electron      52.0000003 magnetization 
 augmentation part        1.2893923 magnetization 

 DIPCOR: dipole corrections for dipol
 direction  1 min pos     1, direction  2 min pos     1, direction  3 min pos     1,
 dipolmoment           0.207388      0.811145     -0.148034 electrons x Angstroem
 Tr[quadrupol]        32.204609

 energy correction for charged system         0.000000 eV
 dipol+quadrupol energy correction           -0.002725 eV
 added-field ion interaction         -0.111061 eV  (added to PSCEN)


 Free energy of the ion-electron system (eV)
  ---------------------------------------------------
  alpha Z        PSCENC =         1.33171694
  Ewald energy   TEWEN  =      3842.37979998
  -Hartree energ DENC   =     -5148.26434198
  -exchange      EXHF   =       108.30999042
  -V(xc)+E(xc)   XCENC  =       137.71605463
  PAW double counting   =      3940.57342887    -3949.41888431
  entropy T*S    EENTRO =        -0.00000000
  eigenvalues    EBANDS =      -700.47915125
  atomic energy  EATOM  =      1612.77738675
  ---------------------------------------------------
  free energy    TOTEN  =      -155.07399994 eV

  energy without entropy =     -155.07399994  energy(sigma->0) =     -155.07399994
  exchange ACFDT corr.  =        -0.00000000  see jH, gK, PRB 81, 115126


--------------------------------------------------------------------------------------------------------




--------------------------------------- Iteration      1(  71)  ---------------------------------------


    POTLOK:  cpu time      0.8570: real time      0.8600
    SETDIJ:  cpu time      0.0027: real time      0.0027
    TRIAL :  cpu time      5.1659: real time      5.2010
    CORREC:  cpu time      0.0002: real time      0.0002
    CHARGE:  cpu time      0.1104: real time      0.1114
    --------------------------------------------
      LOOP:  cpu time      6.1366: real time      6.1756

 eigenvalue-minimisations  :     0
 total energy-change (2. order) :-0.5621187E-06  (-0.1118629E-05)
 number of electron      52.0000003 magnetization 
 augmentation part        1.2893922 magnetization 

 DIPCOR: dipole corrections for dipol
 direction  1 min pos     1, direction  2 min pos     1, direction  3 min pos     1,
 dipolmoment           0.207380      0.811144     -0.148057 electrons x Angstroem
 Tr[quadrupol]        32.204811

 energy correction for charged system         0.000000 eV
 dipol+quadrupol energy correction           -0.002725 eV
 added-field ion interaction         -0.111061 eV  (added to PSCEN)


 Free energy of the ion-electron system (eV)
  ---------------------------------------------------
  alpha Z        PSCENC =         1.33171751
  Ewald energy   TEWEN  =      3842.37979998
  -Hartree energ DENC   =     -5148.26334137
  -exchange      EXHF   =       108.30997400
  -V(xc)+E(xc)   XCENC  =       137.71598446
  PAW double counting   =      3940.57264237    -3949.41809680
  entropy T*S    EENTRO =        -0.00000000
  eigenvalues    EBANDS =      -700.48006739
  atomic energy  EATOM  =      1612.77738675
  ---------------------------------------------------
  free energy    TOTEN  =      -155.07400051 eV

  energy without entropy =     -155.07400051  energy(sigma->0) =     -155.07400051
  exchange ACFDT corr.  =        -0.00000000  see jH, gK, PRB 81, 115126


--------------------------------------------------------------------------------------------------------




--------------------------------------- Iteration      1(  72)  ---------------------------------------


    POTLOK:  cpu time      0.8529: real time      0.8568
    SETDIJ:  cpu time      0.0025: real time      0.0025
    TRIAL :  cpu time      5.1601: real time      5.1943
    CORREC:  cpu time      0.0001: real time      0.0001
    EDDIAG:  cpu time      4.8724: real time      4.8993
    CHARGE:  cpu time      0.1106: real time      0.1112
    --------------------------------------------
      LOOP:  cpu time     10.9989: real time     11.0644

 eigenvalue-minimisations  :     0
 total energy-change (2. order) : 0.2076476E-06  (-0.9535061E-06)
 number of electron      52.0000003 magnetization 
 augmentation part        1.2893921 magnetization 

 DIPCOR: dipole corrections for dipol
 direction  1 min pos     1, direction  2 min pos     1, direction  3 min pos     1,
 dipolmoment           0.207391      0.811147     -0.148038 electrons x Angstroem
 Tr[quadrupol]        32.204703

 energy correction for charged system         0.000000 eV
 dipol+quadrupol energy correction           -0.002725 eV
 added-field ion interaction         -0.111062 eV  (added to PSCEN)


 Free energy of the ion-electron system (eV)
  ---------------------------------------------------
  alpha Z        PSCENC =         1.33171628
  Ewald energy   TEWEN  =      3842.37979998
  -Hartree energ DENC   =     -5148.26363100
  -exchange      EXHF   =       108.30997560
  -V(xc)+E(xc)   XCENC  =       137.71603831
  PAW double counting   =      3940.57302304    -3949.41847776
  entropy T*S    EENTRO =        -0.00000000
  eigenvalues    EBANDS =      -700.47983747
  atomic energy  EATOM  =      1612.77738675
  ---------------------------------------------------
  free energy    TOTEN  =      -155.07400030 eV

  energy without entropy =     -155.07400030  energy(sigma->0) =     -155.07400030
  exchange ACFDT corr.  =        -0.00000000  see jH, gK, PRB 81, 115126


--------------------------------------------------------------------------------------------------------


  average scaling for gradient   0.5024


 average (electrostatic) potential at core
  the test charge radii are     0.6991  0.5201  0.7089
  (the norm of the test charge is              1.0000)
       1 -54.7203       2 -54.8955       3 -54.9689       4 -55.0326       5 -55.4542
       6 -56.3612       7 -55.4648       8 -56.3117       9 -38.3917      10 -38.2093
      11 -38.3947      12 -38.3740      13 -38.5115      14 -38.6664      15 -38.4178
      16 -38.5476      17 -38.6230      18 -38.9915      19 -38.9807      20 -39.4086
      21 -38.7922      22 -38.9799      23 -38.9377      24 -68.7685
 
 
 
 E-fermi :  -8.0593     XC(G=0):  -0.2741     alpha+bet : -0.1650

 Fermi energy:        -8.0592616437

 k-point     1 :       0.0000    0.0000    0.0000
  band No.  band energies     occupation 
      1     -24.6830      2.00000
      2     -23.0636      2.00000
      3     -21.9379      2.00000
      4     -20.4250      2.00000
      5     -18.7057      2.00000
      6     -17.6320      2.00000
      7     -16.4006      2.00000
      8     -15.7939      2.00000
      9     -14.1501      2.00000
     10     -13.5374      2.00000
     11     -12.9848      2.00000
     12     -12.3703      2.00000
     13     -11.6464      2.00000
     14     -11.4202      2.00000
     15     -11.1356      2.00000
     16     -10.7253      2.00000
     17     -10.2847      2.00000
     18     -10.0782      2.00000
     19      -9.8981      2.00000
     20      -9.6032      2.00000
     21      -9.3614      2.00000
     22      -9.3222      2.00000
     23      -8.9978      2.00000
     24      -8.9926      2.00000
     25      -8.7906      2.00000
     26      -8.2992      2.00000
     27      -0.4155      0.00000
     28      -0.1072      0.00000
     29       0.0157      0.00000
     30       0.1412      0.00000
     31       0.2021      0.00000
     32       0.3095      0.00000
     33       0.4450      0.00000
     34       0.4608      0.00000
     35       0.5591      0.00000
     36       0.5793      0.00000
     37       0.5925      0.00000
     38       0.6125      0.00000
     39       0.6240      0.00000
     40       0.7217      0.00000


--------------------------------------------------------------------------------------------------------


 soft charge-density along one line, spin component           1
         0         1         2         3         4         5         6         7         8         9
 total charge-density along one line
 
 pseudopotential strength for first ion, spin component:           1
  9.971  13.255  -0.000  -0.000  -0.000   0.001   0.000   0.001
 13.255  17.618  -0.000  -0.000  -0.000   0.002   0.001   0.001
 -0.000  -0.000  -4.253  -0.000   0.000   8.340   0.001  -0.001
 -0.000  -0.000  -0.000  -4.252   0.001   0.001   8.339  -0.001
 -0.000  -0.000   0.000   0.001  -4.253  -0.001  -0.001   8.339
  0.001   0.002   8.340   0.001  -0.001 -18.476  -0.001   0.001
  0.000   0.001   0.001   8.339  -0.001  -0.001 -18.475   0.002
  0.001   0.001  -0.001  -0.001   8.339   0.001   0.002 -18.475
 total augmentation occupancy for first ion, spin component:           1
  7.315  -3.106  -0.035   0.010  -0.024  -0.002   0.003   0.004
 -3.106   1.342   0.024   0.004   0.020   0.000  -0.002  -0.005
 -0.035   0.024   1.591   0.010  -0.007   0.128   0.003   0.001
  0.010   0.004   0.010   1.562  -0.020   0.003   0.125  -0.001
 -0.024   0.020  -0.007  -0.020   1.612   0.001  -0.001   0.132
 -0.002   0.000   0.128   0.003   0.001   0.011   0.000   0.000
  0.003  -0.002   0.003   0.125  -0.001   0.000   0.010   0.000
  0.004  -0.005   0.001  -0.001   0.132   0.000   0.000   0.011


------------------------ aborting loop because EDIFF is reached ----------------------------------------





 total charge

# of ion       s       p       d       tot
------------------------------------------
    1        0.837   1.778   0.000   2.615
    2        0.834   1.782   0.000   2.615
    3        0.840   1.780   0.000   2.620
    4        0.836   1.787   0.000   2.623
    5        0.843   1.790   0.000   2.633
    6        0.831   1.794   0.000   2.624
    7        0.835   1.768   0.000   2.604
    8        0.943   1.787   0.000   2.730
    9        0.652   0.044   0.000   0.696
   10        0.632   0.039   0.000   0.671
   11        0.657   0.046   0.000   0.703
   12        0.644   0.041   0.000   0.685
   13        0.658   0.045   0.000   0.703
   14        0.661   0.045   0.000   0.706
   15        0.642   0.040   0.000   0.682
   16        0.648   0.044   0.000   0.691
   17        0.649   0.043   0.000   0.692
   18        0.661   0.046   0.000   0.708
   19        0.646   0.042   0.000   0.688
   20        0.644   0.044   0.000   0.687
   21        0.631   0.040   0.000   0.671
   22        0.633   0.041   0.000   0.674
   23        0.641   0.044   0.000   0.685
   24        1.328   2.482   0.000   3.811
--------------------------------------------------
tot         17.827  17.391   0.000  35.217
 
    FORLOC:  cpu time      0.0547: real time      0.0549
    FORHF :  cpu time      2.7831: real time      2.7989
    FORNL :  cpu time      0.1029: real time      0.1035
    FORCOR:  cpu time      0.8153: real time      0.8183
    OFIELD:  cpu time      0.0020: real time      0.0020

 VOLUME and BASIS-vectors are now :
 -----------------------------------------------------------------------------
  energy-cutoff  :      500.00
  volume of cell :     8000.00
      direct lattice vectors                 reciprocal lattice vectors
    20.000000000  0.000000000  0.000000000     0.050000000  0.000000000  0.000000000
     0.000000000 20.000000000  0.000000000     0.000000000  0.050000000  0.000000000
     0.000000000  0.000000000 20.000000000     0.000000000  0.000000000  0.050000000

  length of vectors
    20.000000000 20.000000000 20.000000000     0.050000000  0.050000000  0.050000000


 FORCES acting on ions:
    Electron-Ion                     Ewald-Force                    Non-Local-Force
 -----------------------------------------------------------------------------------------------
   0.166E+03 0.335E+02 0.165E+02   -.166E+03 -.330E+02 -.166E+02   -.915E+00 -.528E+00 -.876E+00
   0.805E+02 -.667E+02 -.999E+02   -.802E+02 0.666E+02 0.100E+03   -.118E+01 -.732E+00 -.354E-01
   0.612E+02 0.634E+02 0.603E+02   -.613E+02 -.629E+02 -.599E+02   0.444E-01 0.609E+00 -.541E+00
   0.165E+02 -.562E+02 -.811E+02   -.172E+02 0.566E+02 0.815E+02   0.220E+00 -.323E+00 -.363E+00
   0.594E+01 0.989E+02 0.117E+03   -.745E+01 -.990E+02 -.116E+03   0.134E+01 0.521E-01 0.265E+00
   -.119E+03 0.511E+02 0.679E+02   0.118E+03 -.561E+02 -.677E+02   0.194E+01 0.434E+01 -.660E+00
   -.119E+03 0.693E+02 -.141E+03   0.119E+03 -.697E+02 0.143E+03   0.651E+00 -.505E+00 -.405E+00
   -.728E+02 -.126E+02 0.399E+02   0.725E+02 0.962E+01 -.399E+02   0.705E+00 0.370E+01 -.550E+00
   0.289E+02 0.695E+02 -.263E+01   -.290E+02 -.749E+02 0.298E+01   0.463E-01 0.543E+01 -.246E+00
   0.365E+02 -.900E+01 0.634E+02   -.371E+02 0.997E+01 -.676E+02   0.531E+00 -.104E+01 0.495E+01
   0.699E+02 -.164E+02 -.287E+02   -.746E+02 0.183E+02 0.315E+02   0.451E+01 -.183E+01 -.274E+01
   0.118E+02 0.134E+02 -.791E+02   -.112E+02 -.145E+02 0.837E+02   -.309E+00 0.168E+01 -.498E+01
   0.220E+02 -.780E+02 -.804E+01   -.221E+02 0.836E+02 0.793E+01   0.350E+00 -.554E+01 0.485E+00
   0.140E+02 0.821E+02 0.805E+01   -.143E+02 -.878E+02 -.825E+01   0.292E+00 0.556E+01 0.922E-01
   0.237E+02 -.187E+02 0.765E+02   -.245E+02 0.200E+02 -.808E+02   0.782E+00 -.193E+01 0.472E+01
   0.937E+01 -.802E+02 -.513E+01   -.925E+01 0.854E+02 0.478E+01   0.182E+00 -.542E+01 0.417E+00
   -.449E+01 0.930E+01 -.815E+02   0.542E+01 -.104E+02 0.863E+02   -.102E+01 0.113E+01 -.515E+01
   0.134E+02 -.355E+01 0.871E+02   -.150E+02 0.476E+01 -.926E+02   0.142E+01 -.155E+01 0.529E+01
   0.123E+01 0.873E+02 0.856E+01   -.160E+01 -.922E+02 -.825E+01   0.430E+00 0.527E+01 -.821E+00
   -.577E+02 0.452E+02 0.557E+02   0.608E+02 -.477E+02 -.592E+02   -.310E+01 0.299E+01 0.337E+01
   -.722E+02 0.368E+02 -.170E+02   0.762E+02 -.386E+02 0.170E+02   -.467E+01 0.222E+01 -.259E-01
   0.110E+02 0.584E+02 -.493E+02   -.137E+02 -.614E+02 0.513E+02   0.321E+01 0.365E+01 -.195E+01
   -.267E+02 -.395E+02 -.647E+02   0.269E+02 0.434E+02 0.680E+02   -.543E+00 -.439E+01 -.327E+01
   -.990E+02 -.310E+03 0.566E+02   0.105E+03 0.350E+03 -.611E+02   -.600E+01 -.380E+02 0.425E+01
 -----------------------------------------------------------------------------------------------
   0.136E+01 0.278E+02 -.142E+01   -.284E-13 -.114E-12 -.995E-13   -.108E+01 -.252E+02 0.123E+01
 
 
 POSITION                                       TOTAL-FORCE (eV/Angst)
 -----------------------------------------------------------------------------------
      6.33144      9.72642     10.05508        -0.754299     -0.090565     -1.001464
      7.62738     10.31304     10.58377        -0.936585     -0.833396      0.269483
      8.73843      9.76014      9.72980        -0.083662      1.180480     -0.160610
     10.10120     10.27124     10.15481        -0.483296     -0.045390      0.008956
     11.07724      9.62172      9.20186        -0.111401     -0.038121      0.357216
     12.50249     10.01459      9.47096         1.013226     -0.438662     -0.554480
     12.92835      9.61831     10.87107         1.177135     -0.932736      1.325614
     12.71573     11.44948      9.28865         0.416757      1.042450     -0.572792
      6.33631      8.62697     10.11475        -0.009931      0.281136      0.094923
      6.21905      9.96642      8.95988        -0.082566     -0.105417      0.986737
      5.45258     10.08893     10.59265        -0.011415     -0.014117     -0.122456
      7.71062      9.96786     11.64107         0.260294      0.648748     -0.517741
      7.57155     11.40397     10.49527         0.226661     -0.143855      0.402843
      8.69074      8.66622      9.71482         0.075574      0.122058     -0.113410
      8.57144     10.16722      8.69651         0.049538     -0.725871      0.604458
     10.07655     11.37381     10.06089         0.307555     -0.450102      0.089109
     10.32073     10.02222     11.21253        -0.132659      0.120673     -0.530675
     10.80787      9.91040      8.18412        -0.028771     -0.395324     -0.046087
     10.99996      8.52403      9.36584         0.073225      0.566939     -0.539510
     13.13666      9.42981      8.77421        -0.160346      0.691589      0.033823
     13.94566      9.13834     10.85928        -0.874200      0.501187      0.016104
     12.22869      8.84580     11.28020         0.605911      0.816185     -0.098338
     13.01742     10.50249     11.52912        -0.327891     -0.680208     -0.070420
     12.89192     12.59058      9.16287        -0.208855     -1.077680      0.138717
 -----------------------------------------------------------------------------------
    total drift:                                0.000775     -0.000534     -0.000960


--------------------------------------------------------------------------------------------------------



  FREE ENERGIE OF THE ION-ELECTRON SYSTEM (eV)
  ---------------------------------------------------
  free  energy   TOTEN  =      -155.07400030 eV

  energy  without entropy=     -155.07400030  energy(sigma->0) =     -155.07400030
 


--------------------------------------------------------------------------------------------------------


    POTLOK:  cpu time      0.8658: real time      0.8692


--------------------------------------------------------------------------------------------------------


 writing wavefunctions
     LOOP+:  cpu time    446.7088: real time    452.8253
    4ORBIT:  cpu time      0.0000: real time      0.0000



 total charge

# of ion       s       p       d       tot
------------------------------------------
    1        0.837   1.778   0.000   2.615
    2        0.834   1.782   0.000   2.615
    3        0.840   1.780   0.000   2.620
    4        0.836   1.787   0.000   2.623
    5        0.843   1.790   0.000   2.633
    6        0.831   1.794   0.000   2.624
    7        0.835   1.768   0.000   2.604
    8        0.943   1.787   0.000   2.730
    9        0.652   0.044   0.000   0.696
   10        0.632   0.039   0.000   0.671
   11        0.657   0.046   0.000   0.703
   12        0.644   0.041   0.000   0.685
   13        0.658   0.045   0.000   0.703
   14        0.661   0.045   0.000   0.706
   15        0.642   0.040   0.000   0.682
   16        0.648   0.044   0.000   0.691
   17        0.649   0.043   0.000   0.692
   18        0.661   0.046   0.000   0.708
   19        0.646   0.042   0.000   0.688
   20        0.644   0.044   0.000   0.687
   21        0.631   0.040   0.000   0.671
   22        0.633   0.041   0.000   0.674
   23        0.641   0.044   0.000   0.685
   24        1.328   2.482   0.000   3.811
--------------------------------------------------
tot         17.827  17.391   0.000  35.217
 

 total amount of memory used by VASP MPI-rank0   755133. kBytes
=======================================================================

   base      :      30000. kBytes
   nonl-proj :      29279. kBytes
   fftplans  :      75720. kBytes
   grid      :      92179. kBytes
   one-center:         18. kBytes
   HF        :          9. kBytes
   nonlr-proj:       1028. kBytes
   wavefun   :      12207. kBytes
   fock_wrk  :     514693. kBytes
 
  
  
 General timing and accounting informations for this job:
 ========================================================
  
                  Total CPU time used (sec):      464.257
                            User time (sec):      408.500
                          System time (sec):       55.757
                         Elapsed time (sec):      477.006
  
                   Maximum memory used (kb):     1232804.
                   Average memory used (kb):          N/A
  
                          Minor page faults:      1849842
                          Major page faults:           49
                 Voluntary context switches:        20197
