       N       E                     dE             d eps       ncg     rms          ort
SDA:   1    -0.420202394898E+03   -0.42020E+03    0.00000E+00   112   0.118E+01 0.000E+00
CGA:   2    -0.420657509144E+03   -0.45511E+00   -0.45040E+00   112   0.503E+00 0.257E-01
CGA:   3    -0.420760856684E+03   -0.10335E+00   -0.10335E+00   112   0.162E+00 0.734E-03
CGA:   4    -0.420804275758E+03   -0.43419E-01   -0.43355E-01   112   0.629E-01 0.749E-03
CGA:   5    -0.420821502223E+03   -0.17226E-01   -0.17198E-01   112   0.341E-01 0.322E-03
CGA:   6    -0.420831123675E+03   -0.96215E-02   -0.96072E-02   112   0.160E-01 0.173E-03
CGA:   7    -0.420835736968E+03   -0.46133E-02   -0.46087E-02   112   0.658E-02 0.585E-04
CGA:   8    -0.420837749042E+03   -0.20121E-02   -0.20115E-02   112   0.284E-02 0.713E-05
CGA:   9    -0.420838537842E+03   -0.78880E-03   -0.78856E-03   112   0.117E-02 0.697E-05
CGA:  10    -0.420838876447E+03   -0.33861E-03   -0.33853E-03   112   0.467E-03 0.361E-05
CGA:  11    -0.420839032621E+03   -0.15617E-03   -0.15670E-03   112   0.241E-03-0.354E-05
CGA:  12    -0.420839107616E+03   -0.74995E-04   -0.75259E-04   112   0.117E-03-0.145E-05
CGA:  13    -0.420839142225E+03   -0.34609E-04   -0.34827E-04   112   0.492E-04-0.133E-05
CGA:  14    -0.420839156653E+03   -0.14429E-04   -0.14653E-04   112   0.239E-04-0.155E-05
CGA:  15    -0.420839162594E+03   -0.59409E-05   -0.60663E-05   112   0.114E-04-0.573E-06
CGA:  16    -0.420839165405E+03   -0.28110E-05   -0.29324E-05   112   0.520E-05-0.329E-06
CGA:  17    -0.420839166777E+03   -0.13714E-05   -0.15364E-05   112   0.343E-05-0.539E-06
CGA:  18    -0.420839167450E+03   -0.67348E-06   -0.78755E-06   112   0.228E-05-0.383E-06
   1 F= -.42167583E+03 E0= -.42167583E+03  d E =-.299769E-15
