Molecule_POSCAR_06                      
   1.00000000000000     
    30.0000000000000000    0.0000000000000000    0.0000000000000000
     0.0000000000000000   30.0000000000000000    0.0000000000000000
     0.0000000000000000    0.0000000000000000   30.0000000000000000
   C    H    N    O    Si
    21    22     2     8     1
Direct
  0.5203490666666681  0.3299786333333330  0.4670523666666639
  0.6024110000000036  0.3758868999999976  0.5037240666666634
  0.5111937333333358  0.3995341999999980  0.5387577333333340
  0.5000729333333354  0.4487043333333318  0.5361465333333300
  0.4780697333333350  0.4561866333333313  0.4909432999999979
  0.4001972666666660  0.4814460333333344  0.4874254666666644
  0.3665563333333353  0.5156528999999992  0.4935460000000020
  0.3769257333333300  0.5573097666666698  0.5087801000000027
  0.3432782333333364  0.5883564333333311  0.5138635333333355
  0.2989315000000019  0.5795931999999979  0.5042686000000032
  0.2897605666666649  0.5370171333333360  0.4889146000000011
  0.3230317666666664  0.5057360666666639  0.4836972666666668
  0.5143085666666636  0.4691602333333336  0.4589794333333330
  0.5592348666666638  0.5375560666666672  0.4663405333333301
  0.5926525333333359  0.5626450999999975  0.4909055666666688
  0.6052902333333350  0.6042746999999977  0.4764031666666639
  0.6367621666666636  0.6290189999999996  0.4987113333333326
  0.6570731333333342  0.6130980333333298  0.5367142333333348
  0.6443143666666700  0.5712198333333305  0.5512443000000005
  0.6128066333333351  0.5466116666666636  0.5287892666666636
  0.5376489333333367  0.4273956666666692  0.4432156333333310
  0.4870329666666677  0.3345679999999973  0.4514898333333335
  0.5437540333333359  0.3131313666666671  0.4445908000000003
  0.5155585333333335  0.3090928000000019  0.4971798333333339
  0.6118304666666674  0.3405277333333316  0.5019393666666687
  0.6247725333333349  0.3966580000000022  0.4818566333333365
  0.6092044666666681  0.3872213666666653  0.5383884000000023
  0.5308951000000022  0.3930378000000019  0.5694992999999968
  0.4785264333333359  0.3816449333333338  0.5396072333333350
  0.5314436666666680  0.4686914999999985  0.5380305999999990
  0.4768932333333353  0.4590478000000004  0.5636031666666668
  0.4637938666666699  0.4237743333333341  0.4781490666666670
  0.4113983666666670  0.5670066666666642  0.5171847000000014
  0.3504970999999983  0.6219720333333356  0.5259827000000001
  0.2557061333333337  0.5286256333333341  0.4810013000000026
  0.3137691000000018  0.4725254000000021  0.4714008666666700
  0.5020742000000027  0.4877176000000034  0.4294458000000034
  0.5894676666666641  0.6168923333333325  0.4466394333333312
  0.6456704666666653  0.6619883999999985  0.4858052666666666
  0.6596282333333363  0.5579534000000024  0.5808315666666672
  0.6026743999999979  0.5135703666666700  0.5401683666666699
  0.5718220333333335  0.4366016999999971  0.4317434333333310
  0.5208651000000017  0.4125311000000025  0.4136913333333325
  0.2652963000000028  0.6122546000000000  0.5098837333333321
  0.6895649666666657  0.6386855666666662  0.5597149333333320
  0.4452057999999965  0.4886576666666684  0.4966121666666652
  0.3903093333333345  0.4432553666666692  0.4734011666666689
  0.2260772333333350  0.6034249000000003  0.5010444333333339
  0.2757030666666651  0.6538777000000024  0.5251123999999976
  0.5463535333333311  0.4958415333333335  0.4805939666666674
  0.5420274333333310  0.5537061666666645  0.4321713333333363
  0.7078501666666668  0.6243203333333298  0.5939511333333343
  0.7004968999999974  0.6799001666666697  0.5433183000000028
  0.5429679000000007  0.3849131999999997  0.4875443333333322
 
  0.00000000E+00  0.00000000E+00  0.00000000E+00
  0.00000000E+00  0.00000000E+00  0.00000000E+00
  0.00000000E+00  0.00000000E+00  0.00000000E+00
  0.00000000E+00  0.00000000E+00  0.00000000E+00
  0.00000000E+00  0.00000000E+00  0.00000000E+00
  0.00000000E+00  0.00000000E+00  0.00000000E+00
  0.00000000E+00  0.00000000E+00  0.00000000E+00
  0.00000000E+00  0.00000000E+00  0.00000000E+00
  0.00000000E+00  0.00000000E+00  0.00000000E+00
  0.00000000E+00  0.00000000E+00  0.00000000E+00
  0.00000000E+00  0.00000000E+00  0.00000000E+00
  0.00000000E+00  0.00000000E+00  0.00000000E+00
  0.00000000E+00  0.00000000E+00  0.00000000E+00
  0.00000000E+00  0.00000000E+00  0.00000000E+00
  0.00000000E+00  0.00000000E+00  0.00000000E+00
  0.00000000E+00  0.00000000E+00  0.00000000E+00
  0.00000000E+00  0.00000000E+00  0.00000000E+00
  0.00000000E+00  0.00000000E+00  0.00000000E+00
  0.00000000E+00  0.00000000E+00  0.00000000E+00
  0.00000000E+00  0.00000000E+00  0.00000000E+00
  0.00000000E+00  0.00000000E+00  0.00000000E+00
  0.00000000E+00  0.00000000E+00  0.00000000E+00
  0.00000000E+00  0.00000000E+00  0.00000000E+00
  0.00000000E+00  0.00000000E+00  0.00000000E+00
  0.00000000E+00  0.00000000E+00  0.00000000E+00
  0.00000000E+00  0.00000000E+00  0.00000000E+00
  0.00000000E+00  0.00000000E+00  0.00000000E+00
  0.00000000E+00  0.00000000E+00  0.00000000E+00
  0.00000000E+00  0.00000000E+00  0.00000000E+00
  0.00000000E+00  0.00000000E+00  0.00000000E+00
  0.00000000E+00  0.00000000E+00  0.00000000E+00
  0.00000000E+00  0.00000000E+00  0.00000000E+00
  0.00000000E+00  0.00000000E+00  0.00000000E+00
  0.00000000E+00  0.00000000E+00  0.00000000E+00
  0.00000000E+00  0.00000000E+00  0.00000000E+00
  0.00000000E+00  0.00000000E+00  0.00000000E+00
  0.00000000E+00  0.00000000E+00  0.00000000E+00
  0.00000000E+00  0.00000000E+00  0.00000000E+00
  0.00000000E+00  0.00000000E+00  0.00000000E+00
  0.00000000E+00  0.00000000E+00  0.00000000E+00
  0.00000000E+00  0.00000000E+00  0.00000000E+00
  0.00000000E+00  0.00000000E+00  0.00000000E+00
  0.00000000E+00  0.00000000E+00  0.00000000E+00
  0.00000000E+00  0.00000000E+00  0.00000000E+00
  0.00000000E+00  0.00000000E+00  0.00000000E+00
  0.00000000E+00  0.00000000E+00  0.00000000E+00
  0.00000000E+00  0.00000000E+00  0.00000000E+00
  0.00000000E+00  0.00000000E+00  0.00000000E+00
  0.00000000E+00  0.00000000E+00  0.00000000E+00
  0.00000000E+00  0.00000000E+00  0.00000000E+00
  0.00000000E+00  0.00000000E+00  0.00000000E+00
  0.00000000E+00  0.00000000E+00  0.00000000E+00
  0.00000000E+00  0.00000000E+00  0.00000000E+00
  0.00000000E+00  0.00000000E+00  0.00000000E+00
