Molecule_POSCAR_06
1.0
30.000000 0.000000 0.000000
0.000000 30.000000 0.000000
0.000000 0.000000 30.000000
C H N O Si
21 22 2 8 1
Cartesian
15.610472 9.899359 14.011571
18.072330 11.276607 15.111722
15.335812 11.986026 16.162732
15.002188 13.461130 16.084396
14.342092 13.685599 14.728299
12.005918 14.443381 14.622764
10.996690 15.469587 14.806380
11.307772 16.719293 15.263403
10.298347 17.650693 15.415906
8.967945 17.387796 15.128058
8.692817 16.110514 14.667438
9.690953 15.172082 14.510918
15.429257 14.074807 13.769383
16.777046 16.126682 13.990216
17.779576 16.879353 14.727167
18.158707 18.128241 14.292095
19.102865 18.870570 14.961340
19.712194 18.392941 16.101427
19.329431 17.136595 16.537329
18.384199 16.398350 15.863678
16.129468 12.821870 13.296469
14.610989 10.037040 13.544695
16.312621 9.393941 13.337724
15.466756 9.272784 14.915395
18.354914 10.215832 15.058181
18.743176 11.899740 14.455699
18.276134 11.616641 16.151652
15.926853 11.791134 17.084979
14.355793 11.449348 16.188217
15.943310 14.060745 16.140918
14.306797 13.771434 16.908095
13.913816 12.713230 14.344472
12.341951 17.010200 15.515541
10.514913 18.659161 15.779481
7.671184 15.858769 14.430039
9.413073 14.175762 14.142026
15.062226 14.631528 12.883374
17.684030 18.506770 13.399183
19.370114 19.859652 14.574158
19.788847 16.738602 17.424947
18.080232 15.407111 16.205051
17.154661 13.098051 12.952303
15.625953 12.375933 12.410740
7.958889 18.367638 15.296512
20.686949 19.160567 16.791448
13.356174 14.659730 14.898365
11.709280 13.297661 14.202035
6.782317 18.102747 15.031333
8.271092 19.616331 15.753372
16.390606 14.875246 14.417819
16.260823 16.611185 12.965140
21.235505 18.729610 17.818534
21.014907 20.397005 16.299549
16.289037 11.547396 14.626330
