   40   40    1    1
  0.6750000E+03  0.3000000E-08  0.3000000E-08  0.3000000E-08  0.5000000E-15
  1.000000000000000E-004
  CAR 
 Step2_PBE0_Final_Calc                   
    165      1    104
 
  0.0000000E+00  0.0000000E+00  0.0000000E+00  0.1000000E+01
    1      -33.647743   1.000000
    2      -33.508582   1.000000
    3      -31.890648   1.000000
    4      -30.981176   1.000000
    5      -28.947892   1.000000
    6      -28.180896   1.000000
    7      -28.008327   1.000000
    8      -26.190675   1.000000
    9      -25.940652   1.000000
   10      -25.748523   1.000000
   11      -25.249002   1.000000
   12      -24.356321   1.000000
   13      -24.309411   1.000000
   14      -24.174874   1.000000
   15      -23.872868   1.000000
   16      -23.610070   1.000000
   17      -23.269746   1.000000
   18      -23.134772   1.000000
   19      -22.368487   1.000000
   20      -21.252277   1.000000
   21      -20.947736   1.000000
   22      -20.696427   1.000000
   23      -20.384894   1.000000
   24      -19.161432   1.000000
   25      -18.604728   1.000000
   26      -18.387090   1.000000
   27      -18.157522   1.000000
   28      -17.378247   1.000000
   29      -16.544347   1.000000
   30      -16.400463   1.000000
   31      -15.846103   1.000000
   32      -15.777632   1.000000
   33      -15.589020   1.000000
   34      -15.461698   1.000000
   35      -15.147169   1.000000
   36      -14.816686   1.000000
   37      -14.712380   1.000000
   38      -14.335959   1.000000
   39      -14.184120   1.000000
   40      -14.100000   1.000000
   41      -14.033231   1.000000
   42      -13.931491   1.000000
   43      -13.639382   1.000000
   44      -13.460452   1.000000
   45      -13.375667   1.000000
   46      -13.331613   1.000000
   47      -13.127653   1.000000
   48      -13.005061   1.000000
   49      -12.949880   1.000000
   50      -12.761509   1.000000
   51      -12.518701   1.000000
   52      -12.355159   1.000000
   53      -12.098776   1.000000
   54      -11.970553   1.000000
   55      -11.651424   1.000000
   56      -11.496641   1.000000
   57      -11.298227   1.000000
   58      -11.170754   1.000000
   59      -11.105679   1.000000
   60      -10.985415   1.000000
   61      -10.763787   1.000000
   62      -10.684814   1.000000
   63      -10.536948   1.000000
   64      -10.436377   1.000000
   65      -10.382995   1.000000
   66       -9.901364   1.000000
   67       -9.446909   1.000000
   68       -9.385969   1.000000
   69       -9.273325   1.000000
   70       -9.203987   1.000000
   71       -9.150815   1.000000
   72       -8.947326   1.000000
   73       -8.883276   1.000000
   74       -8.742831   1.000000
   75       -8.609091   1.000000
   76       -8.422271   1.000000
   77       -8.339147   1.000000
   78       -8.245429   1.000000
   79       -8.233858   1.000000
   80       -8.098942   1.000000
   81       -8.071562   1.000000
   82       -7.794457   1.000000
   83       -5.881475   0.500000
   84       -3.554558   0.000000
   85       -3.373173   0.000000
   86       -2.963503   0.000000
   87       -2.326681   0.000000
   88       -1.910881   0.000000
   89       -1.525148   0.000000
   90       -1.458716   0.000000
   91       -1.078269   0.000000
   92       -1.009538   0.000000
   93       -0.692752   0.000000
   94       -0.444073   0.000000
   95       -0.249981   0.000000
   96       -0.145037   0.000000
   97       -0.078700   0.000000
   98        0.015766   0.000000
   99        0.048108   0.000000
  100        0.111416   0.000000
  101        0.196760   0.000000
  102        0.272191   0.000000
  103        0.322564   0.000000
  104        0.382588   0.000000
