       N       E                     dE             d eps       ncg     rms          ort
SDA:   1    -0.455678371424E+02   -0.45568E+02    0.00000E+00   104   0.123E+01 0.000E+00
CGA:   2    -0.460311828462E+02   -0.46335E+00   -0.45737E+00   104   0.498E+00 0.331E-01
CGA:   3    -0.461422141880E+02   -0.11103E+00   -0.11101E+00   104   0.194E+00 0.173E-02
CGA:   4    -0.461953701826E+02   -0.53156E-01   -0.53004E-01   104   0.812E-01 0.171E-02
CGA:   5    -0.462176967556E+02   -0.22327E-01   -0.22277E-01   104   0.428E-01 0.566E-03
CGA:   6    -0.462291429188E+02   -0.11446E-01   -0.11434E-01   104   0.181E-01 0.178E-03
CGA:   7    -0.462343436360E+02   -0.52007E-02   -0.51966E-02   104   0.727E-02 0.514E-04
CGA:   8    -0.462364648471E+02   -0.21212E-02   -0.21197E-02   104   0.283E-02 0.235E-04
CGA:   9    -0.462372686169E+02   -0.80377E-03   -0.80312E-03   104   0.110E-02 0.143E-04
CGA:  10    -0.462376066311E+02   -0.33801E-03   -0.33770E-03   104   0.475E-03 0.642E-05
CGA:  11    -0.462377703730E+02   -0.16374E-03   -0.16350E-03   104   0.247E-03 0.404E-05
CGA:  12    -0.462378520811E+02   -0.81708E-04   -0.81955E-04   104   0.119E-03-0.530E-06
CGA:  13    -0.462378922232E+02   -0.40142E-04   -0.40717E-04   104   0.553E-04-0.372E-05
CGA:  14    -0.462379098497E+02   -0.17626E-04   -0.18049E-04   104   0.276E-04-0.254E-05
CGA:  15    -0.462379177387E+02   -0.78890E-05   -0.81569E-05   104   0.130E-04-0.156E-05
CGA:  16    -0.462379215709E+02   -0.38322E-05   -0.41229E-05   104   0.675E-05-0.136E-05
CGA:  17    -0.462379233037E+02   -0.17328E-05   -0.19541E-05   104   0.386E-05-0.754E-06
CGA:  18    -0.462379241909E+02   -0.88718E-06   -0.10911E-05   104   0.219E-05-0.486E-06
   1 F= -.47173941E+02 E0= -.47159837E+02  d E =-.282095E-01
