Molecule_POSCAR_09                      
   1.00000000000000     
    30.0000000000000000    0.0000000000000000    0.0000000000000000
     0.0000000000000000   30.0000000000000000    0.0000000000000000
     0.0000000000000000    0.0000000000000000   30.0000000000000000
   C    Cl   H    N    O    P 
    13     4     9     5     6     3
Direct
  0.4802800000000005  0.3650955999999965  0.4929696666666672
  0.4572325666666686  0.3782229999999984  0.4556051333333357
  0.4530448333333368  0.4233967666666700  0.4474964333333347
  0.4703167333333340  0.4568719666666681  0.4742108333333306
  0.4935747333333325  0.4433661666666637  0.5117604666666651
  0.4975926999999984  0.3982948333333312  0.5196387000000016
  0.5158811666666665  0.4744695999999990  0.5432927666666671
  0.5402265000000028  0.5107334333333355  0.5197834666666665
  0.5718371000000033  0.4948468999999989  0.4890869666666688
  0.5982896000000011  0.5233736333333354  0.4646515333333312
  0.5927866333333327  0.5683842333333331  0.4712681666666683
  0.5620156000000023  0.5840074666666695  0.5011375333333348
  0.5346430000000026  0.5556273333333337  0.5264218000000014
  0.4563346666666632  0.5549528666666674  0.6439827333333312
  0.3695239666666694  0.5451046666666670  0.4606998333333365
  0.3591394999999977  0.6319500333333323  0.4931491333333327
  0.4530416333333349  0.6953121333333314  0.5015424666666632
  0.4436197666666644  0.3524188333333313  0.4345714000000029
  0.4344529666666688  0.4310464333333357  0.4161378666666664
  0.5159787333333341  0.3871681999999979  0.5495520999999997
  0.4936623999999981  0.4837672666666677  0.5694038333333324
  0.5419939333333303  0.4532640333333333  0.5618026666666651
  0.5769670000000033  0.4596346000000011  0.4831262666666660
  0.6138019666666636  0.5916608333333357  0.4518934666666681
  0.5605736666666701  0.6205274666666654  0.5038054333333335
  0.4284648333333365  0.6272250999999969  0.5146343333333334
  0.4864730333333327  0.3194327000000001  0.5043786000000026
  0.6303878333333301  0.5085894999999994  0.4335052333333351
  0.4242617000000024  0.5311312333333333  0.5461869333333311
  0.4566694666666677  0.5918694333333363  0.4823153666666684
  0.4288279333333307  0.6206075999999996  0.5720237000000026
  0.4716791000000029  0.2883025666666654  0.4816808333333356
  0.5098940333333317  0.3091049333333302  0.5422500000000028
  0.6529268000000030  0.5364307666666690  0.4127822000000023
  0.6380944000000000  0.4643821000000017  0.4248061999999990
  0.5061274999999981  0.5753584333333350  0.5542039666666696
  0.4645169333333357  0.5017071666666695  0.4637950999999987
  0.4565271999999965  0.5684425999999974  0.5765419333333313
  0.4329068999999990  0.5408023666666679  0.4904590000000013
  0.4254309666666671  0.6331153000000000  0.5134459333333368
 
  0.00000000E+00  0.00000000E+00  0.00000000E+00
  0.00000000E+00  0.00000000E+00  0.00000000E+00
  0.00000000E+00  0.00000000E+00  0.00000000E+00
  0.00000000E+00  0.00000000E+00  0.00000000E+00
  0.00000000E+00  0.00000000E+00  0.00000000E+00
  0.00000000E+00  0.00000000E+00  0.00000000E+00
  0.00000000E+00  0.00000000E+00  0.00000000E+00
  0.00000000E+00  0.00000000E+00  0.00000000E+00
  0.00000000E+00  0.00000000E+00  0.00000000E+00
  0.00000000E+00  0.00000000E+00  0.00000000E+00
  0.00000000E+00  0.00000000E+00  0.00000000E+00
  0.00000000E+00  0.00000000E+00  0.00000000E+00
  0.00000000E+00  0.00000000E+00  0.00000000E+00
  0.00000000E+00  0.00000000E+00  0.00000000E+00
  0.00000000E+00  0.00000000E+00  0.00000000E+00
  0.00000000E+00  0.00000000E+00  0.00000000E+00
  0.00000000E+00  0.00000000E+00  0.00000000E+00
  0.00000000E+00  0.00000000E+00  0.00000000E+00
  0.00000000E+00  0.00000000E+00  0.00000000E+00
  0.00000000E+00  0.00000000E+00  0.00000000E+00
  0.00000000E+00  0.00000000E+00  0.00000000E+00
  0.00000000E+00  0.00000000E+00  0.00000000E+00
  0.00000000E+00  0.00000000E+00  0.00000000E+00
  0.00000000E+00  0.00000000E+00  0.00000000E+00
  0.00000000E+00  0.00000000E+00  0.00000000E+00
  0.00000000E+00  0.00000000E+00  0.00000000E+00
  0.00000000E+00  0.00000000E+00  0.00000000E+00
  0.00000000E+00  0.00000000E+00  0.00000000E+00
  0.00000000E+00  0.00000000E+00  0.00000000E+00
  0.00000000E+00  0.00000000E+00  0.00000000E+00
  0.00000000E+00  0.00000000E+00  0.00000000E+00
  0.00000000E+00  0.00000000E+00  0.00000000E+00
  0.00000000E+00  0.00000000E+00  0.00000000E+00
  0.00000000E+00  0.00000000E+00  0.00000000E+00
  0.00000000E+00  0.00000000E+00  0.00000000E+00
  0.00000000E+00  0.00000000E+00  0.00000000E+00
  0.00000000E+00  0.00000000E+00  0.00000000E+00
  0.00000000E+00  0.00000000E+00  0.00000000E+00
  0.00000000E+00  0.00000000E+00  0.00000000E+00
  0.00000000E+00  0.00000000E+00  0.00000000E+00
