Molecule_POSCAR_09                      
   1.00000000000000     
    20.0000000000000000    0.0000000000000000    0.0000000000000000
     0.0000000000000000   20.0000000000000000    0.0000000000000000
     0.0000000000000000    0.0000000000000000   20.0000000000000000
   C    H    N 
     9    17     1
Direct
  0.6223309000000015  0.4167563000000030  0.5448687000000021
  0.5782705000000021  0.4635163499999990  0.5047617000000031
  0.5119121000000035  0.4718842999999993  0.5396672999999979
  0.4648855000000012  0.5168841999999998  0.5038665000000009
  0.4912376999999992  0.5871466999999981  0.4946721499999995
  0.5058501500000006  0.6206305500000013  0.5611988499999967
  0.4472109000000017  0.4912102500000017  0.4343098000000012
  0.4150477499999994  0.4233648000000017  0.4432301000000010
  0.3952473000000012  0.5344464000000002  0.4052100500000009
  0.6521765000000030  0.4434624499999984  0.5830800000000025
  0.5864156000000023  0.3805473999999975  0.5693083000000030
  0.6532537000000005  0.3865787000000012  0.5099498000000011
  0.6025715999999974  0.5125312500000021  0.4969128500000011
  0.5705383499999996  0.4403088999999980  0.4550110500000031
  0.5212519999999969  0.4921622499999998  0.5896317500000023
  0.4879706500000012  0.4226329500000006  0.5456522500000034
  0.4188942500000010  0.5214800500000010  0.5345440999999980
  0.4502784499999990  0.6162612500000009  0.4710005499999994
  0.5352248000000017  0.5871806000000035  0.4621153499999977
  0.4641285499999981  0.6090408499999995  0.5961677499999993
  0.5023110500000030  0.6756405000000001  0.5514709500000023
  0.5546968499999991  0.6054678499999966  0.5797732999999994
  0.4904656000000003  0.4901762499999975  0.4010091999999972
  0.3921112000000022  0.4222853500000028  0.4936537000000030
  0.4552934000000022  0.3851167500000017  0.4418657000000010
  0.3761257999999970  0.4138694500000000  0.4042292000000032
  0.3542989000000034  0.5694172999999978  0.3828391500000023
 
  0.00000000E+00  0.00000000E+00  0.00000000E+00
  0.00000000E+00  0.00000000E+00  0.00000000E+00
  0.00000000E+00  0.00000000E+00  0.00000000E+00
  0.00000000E+00  0.00000000E+00  0.00000000E+00
  0.00000000E+00  0.00000000E+00  0.00000000E+00
  0.00000000E+00  0.00000000E+00  0.00000000E+00
  0.00000000E+00  0.00000000E+00  0.00000000E+00
  0.00000000E+00  0.00000000E+00  0.00000000E+00
  0.00000000E+00  0.00000000E+00  0.00000000E+00
  0.00000000E+00  0.00000000E+00  0.00000000E+00
  0.00000000E+00  0.00000000E+00  0.00000000E+00
  0.00000000E+00  0.00000000E+00  0.00000000E+00
  0.00000000E+00  0.00000000E+00  0.00000000E+00
  0.00000000E+00  0.00000000E+00  0.00000000E+00
  0.00000000E+00  0.00000000E+00  0.00000000E+00
  0.00000000E+00  0.00000000E+00  0.00000000E+00
  0.00000000E+00  0.00000000E+00  0.00000000E+00
  0.00000000E+00  0.00000000E+00  0.00000000E+00
  0.00000000E+00  0.00000000E+00  0.00000000E+00
  0.00000000E+00  0.00000000E+00  0.00000000E+00
  0.00000000E+00  0.00000000E+00  0.00000000E+00
  0.00000000E+00  0.00000000E+00  0.00000000E+00
  0.00000000E+00  0.00000000E+00  0.00000000E+00
  0.00000000E+00  0.00000000E+00  0.00000000E+00
  0.00000000E+00  0.00000000E+00  0.00000000E+00
  0.00000000E+00  0.00000000E+00  0.00000000E+00
  0.00000000E+00  0.00000000E+00  0.00000000E+00
