       N       E                     dE             d eps       ncg     rms          ort
DAV:   1     0.790693785411E+03    0.79069E+03   -0.76001E+03    48   0.642E+02
DAV:   2     0.518641666152E+03   -0.27205E+03   -0.25359E+03    48   0.155E+02
DAV:   3     0.181462628873E+03   -0.33718E+03   -0.30105E+03    48   0.148E+02
DAV:   4    -0.102483279757E+03   -0.28395E+03   -0.26591E+03    48   0.183E+02
DAV:   5    -0.889531228466E+02    0.13530E+02   -0.17503E+03    48   0.171E+02
SDA:   6    -0.759954272136E+02    0.12958E+02   -0.20269E+03    48   0.507E+03 0.000E+00
DMP:   7    -0.155440936867E+03   -0.79446E+02   -0.22485E+02    48   0.532E+02 0.792E+01
DMP:   8    -0.162598086055E+03   -0.71571E+01   -0.15263E+02    48   0.457E+02-0.199E+02
DMP:   9    -0.170300893875E+03   -0.77028E+01   -0.39262E+01    48   0.874E+01 0.282E+01
DMP:  10    -0.171917290233E+03   -0.16164E+01   -0.14310E+01    48   0.415E+01-0.151E+01
DMP:  11    -0.172771211265E+03   -0.85392E+00   -0.90095E+00    48   0.201E+01 0.642E+00
DMP:  12    -0.173315415385E+03   -0.54420E+00   -0.29171E+00    48   0.557E+00 0.451E+00
DMP:  13    -0.173468373396E+03   -0.15296E+00   -0.82574E-01    48   0.193E+00 0.347E-01
DMP:  14    -0.173512707901E+03   -0.44335E-01   -0.39911E-01    48   0.933E-01 0.169E-01
DMP:  15    -0.173538841643E+03   -0.26134E-01   -0.23132E-01    48   0.457E-01 0.316E-01
DMP:  16    -0.173554304957E+03   -0.15463E-01   -0.98288E-02    48   0.171E-01 0.196E-01
DMP:  17    -0.173560645198E+03   -0.63402E-02   -0.37252E-02    48   0.662E-02 0.706E-02
DMP:  18    -0.173563304256E+03   -0.26591E-02   -0.19150E-02    48   0.328E-02 0.395E-02
DMP:  19    -0.173564790359E+03   -0.14861E-02   -0.10090E-02    48   0.152E-02 0.263E-02
DMP:  20    -0.173565603286E+03   -0.81293E-03   -0.58522E-03    48   0.874E-03 0.154E-02
DMP:  21    -0.173566092716E+03   -0.48943E-03   -0.36849E-03    48   0.546E-03 0.983E-03
DMP:  22    -0.173566405928E+03   -0.31321E-03   -0.22330E-03    48   0.308E-03 0.656E-03
DMP:  23    -0.173566602677E+03   -0.19675E-03   -0.13735E-03    48   0.182E-03 0.424E-03
DMP:  24    -0.173566726500E+03   -0.12382E-03   -0.89944E-04    48   0.120E-03 0.274E-03
DMP:  25    -0.173566807471E+03   -0.80971E-04   -0.61697E-04    48   0.840E-04 0.184E-03
DMP:  26    -0.173566864122E+03   -0.56651E-04   -0.44426E-04    48   0.623E-04 0.128E-03
DMP:  27    -0.173566904088E+03   -0.39966E-04   -0.32668E-04    48   0.466E-04 0.918E-04
DMP:  28    -0.173566933187E+03   -0.29099E-04   -0.23749E-04    48   0.338E-04 0.669E-04
DMP:  29    -0.173566954818E+03   -0.21631E-04   -0.17277E-04    48   0.249E-04 0.478E-04
DMP:  30    -0.173566969962E+03   -0.15144E-04   -0.12541E-04    48   0.185E-04 0.337E-04
DMP:  31    -0.173566981223E+03   -0.11261E-04   -0.94672E-05    48   0.148E-04 0.232E-04
DMP:  32    -0.173566989515E+03   -0.82920E-05   -0.73568E-05    48   0.121E-04 0.165E-04
DMP:  33    -0.173566995192E+03   -0.56767E-05   -0.60928E-05    48   0.108E-04 0.116E-04
DMP:  34    -0.173567000090E+03   -0.48979E-05   -0.53451E-05    48   0.102E-04 0.823E-05
DMP:  35    -0.173567004337E+03   -0.42473E-05   -0.45655E-05    48   0.910E-05 0.605E-05
DMP:  36    -0.173567007150E+03   -0.28134E-05   -0.39171E-05    48   0.810E-05 0.444E-05
DMP:  37    -0.173567008966E+03   -0.18155E-05   -0.33477E-05    48   0.695E-05 0.372E-05
DMP:  38    -0.173567011658E+03   -0.26916E-05   -0.29746E-05    48   0.618E-05 0.329E-05
DMP:  39    -0.173567013378E+03   -0.17206E-05   -0.29601E-05    48   0.653E-05 0.228E-05
DMP:  40    -0.173567015948E+03   -0.25702E-05   -0.27198E-05    48   0.636E-05 0.115E-05
DMP:  41    -0.173567016998E+03   -0.10494E-05   -0.23866E-05    48   0.571E-05 0.660E-06
DMP:  42    -0.173567017854E+03   -0.85587E-06   -0.20760E-05    48   0.500E-05 0.502E-06
DMP:  43    -0.173567018792E+03   -0.93847E-06   -0.17377E-05    48   0.422E-05 0.323E-06
DMP:  44    -0.173567020100E+03   -0.13082E-05   -0.15495E-05    48   0.379E-05 0.208E-06
DMP:  45    -0.173567020011E+03    0.89673E-07   -0.14671E-05    48   0.376E-05-0.248E-06
DMP:  46    -0.173567021703E+03   -0.16921E-05   -0.13354E-05    48   0.349E-05-0.388E-06
DMP:  47    -0.173567022170E+03   -0.46713E-06   -0.14098E-05    48   0.378E-05-0.675E-06
DMP:  48    -0.173567021992E+03    0.17813E-06   -0.12801E-05    48   0.361E-05-0.107E-05
DMP:  49    -0.173567022508E+03   -0.51660E-06   -0.10626E-05    48   0.295E-05-0.774E-06
DMP:  50    -0.173567022362E+03    0.14591E-06   -0.90155E-06    48   0.251E-05-0.678E-06
   1 F= -.17356702E+03 E0= -.17356702E+03  d E =-.213579E-11
