Molecule_POSCAR_10                      
   1.00000000000000     
    30.0000000000000000    0.0000000000000000    0.0000000000000000
     0.0000000000000000   30.0000000000000000    0.0000000000000000
     0.0000000000000000    0.0000000000000000   30.0000000000000000
   C    Cl   H    N    O 
    35     1    42     3     2
Direct
  0.3650614333333309  0.5025074666666640  0.5900594333333302
  0.4063323999999966  0.5018955333333324  0.5770808666666696
  0.4395051666666632  0.5018766000000028  0.6161210333333358
  0.4257630333333324  0.5016544333333357  0.5331536999999997
  0.4295157999999972  0.5041508999999991  0.4512647999999970
  0.4760332666666685  0.5029890666666645  0.4403882666666661
  0.4889945333333330  0.5080667666666656  0.3957179000000011
  0.5325715333333321  0.5083088666666669  0.3836168333333347
  0.5650705333333335  0.5034854000000024  0.4155917000000002
  0.5534526666666650  0.4983161333333328  0.4602503333333345
  0.5883688999999990  0.4931085333333343  0.4943082666666641
  0.6670433666666682  0.4915855666666644  0.5076816666666701
  0.6903854999999979  0.4519452999999984  0.5089078666666680
  0.6729282666666663  0.4148739000000035  0.4814149999999984
  0.7044995999999983  0.3757120666666651  0.4853330999999983
  0.6699764666666681  0.4273248000000009  0.4328514333333331
  0.7281553999999986  0.4460461333333328  0.5337172666666632
  0.7439899000000025  0.4810262000000023  0.5587822999999972
  0.7216315333333299  0.5208765333333361  0.5583254666666662
  0.6828687333333363  0.5264747000000014  0.5326901999999976
  0.6595367999999979  0.5694258333333337  0.5323536666666655
  0.6833314666666652  0.6025939666666673  0.5632487333333316
  0.6588893666666635  0.5912709999999990  0.4867295999999968
  0.3570504999999997  0.5031397333333345  0.4878319999999974
  0.3326306333333306  0.4649245333333312  0.4826957333333368
  0.3543303666666660  0.4206240333333326  0.4794958666666673
  0.3208560666666642  0.3879891999999998  0.4565504999999987
  0.3604308666666682  0.3993675999999979  0.5247531333333342
  0.2858513666666695  0.4673963999999984  0.4777455333333336
  0.2648412333333354  0.5078870999999978  0.4779678666666669
  0.2894351999999998  0.5461621666666687  0.4830151999999970
  0.3356468666666643  0.5436915333333303  0.4879067333333325
  0.3597651666666692  0.5856597666666659  0.4913226333333327
  0.3291053333333309  0.6233323000000013  0.4728329333333363
  0.3700160333333358  0.6017305333333312  0.5380852333333337
  0.5772392333333300  0.4831302333333340  0.5503498666666644
  0.3564583666666650  0.5029638999999975  0.6260141666666641
  0.3363511333333307  0.5023241333333317  0.5689867333333325
  0.4328089333333338  0.5335906333333327  0.6347244333333322
  0.4289564333333331  0.4739670000000018  0.6374847666666668
  0.4736184666666645  0.5000877333333307  0.6037739333333363
  0.4643936000000011  0.5118595333333360  0.3703327666666638
  0.5428935333333342  0.5122706333333298  0.3486043999999993
  0.6002645666666666  0.5034343666666672  0.4074902333333341
  0.6389801333333338  0.4051659333333362  0.4927101333333326
  0.7055269333333314  0.3648394333333300  0.5200867000000002
  0.7374704333333355  0.3875405000000001  0.4749741666666694
  0.6929017000000002  0.3477085999999971  0.4637045333333347
  0.6932832333333323  0.4067244333333306  0.4121736333333317
  0.6758049999999969  0.4637024999999966  0.4269006000000033
  0.6359342000000012  0.4199924666666632  0.4208145999999999
  0.7470530333333301  0.4155472666666640  0.5353372333333368
  0.7738319666666698  0.4780721999999997  0.5790618333333342
  0.7348692333333346  0.5477502333333319  0.5783009333333311
  0.6249054000000029  0.5688219333333322  0.5443806999999978
  0.7169791666666683  0.6067918666666685  0.5505695666666668
  0.6832931333333363  0.5869508666666690  0.5967952333333315
  0.6635100666666673  0.6338292666666661  0.5637133999999975
  0.6909852000000001  0.6058750999999987  0.4769582333333346
  0.6351369333333352  0.6198766999999989  0.4896589000000020
  0.6463737666666702  0.5697455666666684  0.4602355666666682
  0.3861253000000033  0.4202524666666676  0.4619554000000008
  0.3065926666666670  0.4069826666666643  0.4288757333333351
  0.3400050666666701  0.3581328666666650  0.4461068333333316
  0.2961479333333301  0.3768266000000011  0.4814083666666633
  0.3857925666666659  0.3716270666666688  0.5227678666666691
  0.3707204666666684  0.4203329666666633  0.5516532999999981
  0.3291167333333362  0.3803957666666662  0.5349945333333324
  0.2670349333333348  0.4376433999999989  0.4739544999999978
  0.2286223333333339  0.5106187333333310  0.4742297000000022
  0.2715035000000015  0.5772173666666660  0.4830668333333321
  0.3892787666666635  0.5867016999999990  0.4690886666666643
  0.3517458666666684  0.6511605666666682  0.4617763999999980
  0.3046107999999990  0.6341398333333359  0.4969822333333340
  0.3119105999999974  0.6120846000000029  0.4422718000000003
  0.4040006333333324  0.5922285333333335  0.5466489666666661
  0.3451376666666661  0.5896285666666685  0.5615716333333367
  0.3708668666666668  0.6393071333333324  0.5372439333333361
  0.4051763333333298  0.5024601000000004  0.4911345000000011
  0.6289044666666683  0.4954588000000015  0.4819261666666677
  0.5100666333333308  0.4985414333333367  0.4686284000000001
  0.4693871999999999  0.5006478999999970  0.5334644333333358
  0.4035634666666681  0.5076272666666668  0.4163197000000025
 
  0.00000000E+00  0.00000000E+00  0.00000000E+00
  0.00000000E+00  0.00000000E+00  0.00000000E+00
  0.00000000E+00  0.00000000E+00  0.00000000E+00
  0.00000000E+00  0.00000000E+00  0.00000000E+00
  0.00000000E+00  0.00000000E+00  0.00000000E+00
  0.00000000E+00  0.00000000E+00  0.00000000E+00
  0.00000000E+00  0.00000000E+00  0.00000000E+00
  0.00000000E+00  0.00000000E+00  0.00000000E+00
  0.00000000E+00  0.00000000E+00  0.00000000E+00
  0.00000000E+00  0.00000000E+00  0.00000000E+00
  0.00000000E+00  0.00000000E+00  0.00000000E+00
  0.00000000E+00  0.00000000E+00  0.00000000E+00
  0.00000000E+00  0.00000000E+00  0.00000000E+00
  0.00000000E+00  0.00000000E+00  0.00000000E+00
  0.00000000E+00  0.00000000E+00  0.00000000E+00
  0.00000000E+00  0.00000000E+00  0.00000000E+00
  0.00000000E+00  0.00000000E+00  0.00000000E+00
  0.00000000E+00  0.00000000E+00  0.00000000E+00
  0.00000000E+00  0.00000000E+00  0.00000000E+00
  0.00000000E+00  0.00000000E+00  0.00000000E+00
  0.00000000E+00  0.00000000E+00  0.00000000E+00
  0.00000000E+00  0.00000000E+00  0.00000000E+00
  0.00000000E+00  0.00000000E+00  0.00000000E+00
  0.00000000E+00  0.00000000E+00  0.00000000E+00
  0.00000000E+00  0.00000000E+00  0.00000000E+00
  0.00000000E+00  0.00000000E+00  0.00000000E+00
  0.00000000E+00  0.00000000E+00  0.00000000E+00
  0.00000000E+00  0.00000000E+00  0.00000000E+00
  0.00000000E+00  0.00000000E+00  0.00000000E+00
  0.00000000E+00  0.00000000E+00  0.00000000E+00
  0.00000000E+00  0.00000000E+00  0.00000000E+00
  0.00000000E+00  0.00000000E+00  0.00000000E+00
  0.00000000E+00  0.00000000E+00  0.00000000E+00
  0.00000000E+00  0.00000000E+00  0.00000000E+00
  0.00000000E+00  0.00000000E+00  0.00000000E+00
  0.00000000E+00  0.00000000E+00  0.00000000E+00
  0.00000000E+00  0.00000000E+00  0.00000000E+00
  0.00000000E+00  0.00000000E+00  0.00000000E+00
  0.00000000E+00  0.00000000E+00  0.00000000E+00
  0.00000000E+00  0.00000000E+00  0.00000000E+00
  0.00000000E+00  0.00000000E+00  0.00000000E+00
  0.00000000E+00  0.00000000E+00  0.00000000E+00
  0.00000000E+00  0.00000000E+00  0.00000000E+00
  0.00000000E+00  0.00000000E+00  0.00000000E+00
  0.00000000E+00  0.00000000E+00  0.00000000E+00
  0.00000000E+00  0.00000000E+00  0.00000000E+00
  0.00000000E+00  0.00000000E+00  0.00000000E+00
  0.00000000E+00  0.00000000E+00  0.00000000E+00
  0.00000000E+00  0.00000000E+00  0.00000000E+00
  0.00000000E+00  0.00000000E+00  0.00000000E+00
  0.00000000E+00  0.00000000E+00  0.00000000E+00
  0.00000000E+00  0.00000000E+00  0.00000000E+00
  0.00000000E+00  0.00000000E+00  0.00000000E+00
  0.00000000E+00  0.00000000E+00  0.00000000E+00
  0.00000000E+00  0.00000000E+00  0.00000000E+00
  0.00000000E+00  0.00000000E+00  0.00000000E+00
  0.00000000E+00  0.00000000E+00  0.00000000E+00
  0.00000000E+00  0.00000000E+00  0.00000000E+00
  0.00000000E+00  0.00000000E+00  0.00000000E+00
  0.00000000E+00  0.00000000E+00  0.00000000E+00
  0.00000000E+00  0.00000000E+00  0.00000000E+00
  0.00000000E+00  0.00000000E+00  0.00000000E+00
  0.00000000E+00  0.00000000E+00  0.00000000E+00
  0.00000000E+00  0.00000000E+00  0.00000000E+00
  0.00000000E+00  0.00000000E+00  0.00000000E+00
  0.00000000E+00  0.00000000E+00  0.00000000E+00
  0.00000000E+00  0.00000000E+00  0.00000000E+00
  0.00000000E+00  0.00000000E+00  0.00000000E+00
  0.00000000E+00  0.00000000E+00  0.00000000E+00
  0.00000000E+00  0.00000000E+00  0.00000000E+00
  0.00000000E+00  0.00000000E+00  0.00000000E+00
  0.00000000E+00  0.00000000E+00  0.00000000E+00
  0.00000000E+00  0.00000000E+00  0.00000000E+00
  0.00000000E+00  0.00000000E+00  0.00000000E+00
  0.00000000E+00  0.00000000E+00  0.00000000E+00
  0.00000000E+00  0.00000000E+00  0.00000000E+00
  0.00000000E+00  0.00000000E+00  0.00000000E+00
  0.00000000E+00  0.00000000E+00  0.00000000E+00
  0.00000000E+00  0.00000000E+00  0.00000000E+00
  0.00000000E+00  0.00000000E+00  0.00000000E+00
  0.00000000E+00  0.00000000E+00  0.00000000E+00
  0.00000000E+00  0.00000000E+00  0.00000000E+00
  0.00000000E+00  0.00000000E+00  0.00000000E+00
