       N       E                     dE             d eps       ncg     rms          ort
SDA:   1    -0.615222672037E+03   -0.61522E+03    0.00000E+00   152   0.129E+01 0.000E+00
CGA:   2    -0.615757898437E+03   -0.53523E+00   -0.53102E+00   152   0.374E+00 0.209E-01
CGA:   3    -0.615852087439E+03   -0.94189E-01   -0.94129E-01   152   0.128E+00 0.107E-02
CGA:   4    -0.615885932852E+03   -0.33845E-01   -0.33790E-01   152   0.430E-01 0.675E-03
CGA:   5    -0.615898559663E+03   -0.12627E-01   -0.12606E-01   152   0.219E-01 0.202E-03
CGA:   6    -0.615904856407E+03   -0.62967E-02   -0.62874E-02   152   0.902E-02 0.111E-03
CGA:   7    -0.615907651093E+03   -0.27947E-02   -0.27912E-02   152   0.368E-02 0.359E-04
CGA:   8    -0.615908702557E+03   -0.10515E-02   -0.10509E-02   152   0.142E-02 0.106E-04
CGA:   9    -0.615909096073E+03   -0.39352E-03   -0.39325E-03   152   0.523E-03 0.880E-05
CGA:  10    -0.615909249877E+03   -0.15380E-03   -0.15359E-03   152   0.232E-03 0.630E-05
CGA:  11    -0.615909331337E+03   -0.81460E-04   -0.81434E-04   152   0.142E-03 0.190E-05
CGA:  12    -0.615909389792E+03   -0.58455E-04   -0.58722E-04   152   0.107E-03-0.272E-06
CGA:  13    -0.615909430160E+03   -0.40368E-04   -0.40668E-04   152   0.752E-04-0.772E-06
CGA:  14    -0.615909457115E+03   -0.26955E-04   -0.27344E-04   152   0.520E-04-0.183E-05
CGA:  15    -0.615909474775E+03   -0.17661E-04   -0.17968E-04   152   0.379E-04-0.143E-05
CGA:  16    -0.615909486273E+03   -0.11497E-04   -0.11674E-04   152   0.250E-04-0.469E-06
CGA:  17    -0.615909493568E+03   -0.72948E-05   -0.74509E-05   152   0.147E-04-0.343E-06
CGA:  18    -0.615909498036E+03   -0.44682E-05   -0.46444E-05   152   0.893E-05-0.458E-06
CGA:  19    -0.615909500373E+03   -0.23374E-05   -0.24754E-05   152   0.479E-05-0.277E-06
CGA:  20    -0.615909501632E+03   -0.12583E-05   -0.14133E-05   152   0.252E-05-0.376E-06
CGA:  21    -0.615909502260E+03   -0.62873E-06   -0.85522E-06   152   0.200E-05-0.594E-06
   1 F= -.61768368E+03 E0= -.61768368E+03  d E =-.152603E-19
