Molecule_POSCAR_10
1.0
30.000000 0.000000 0.000000
0.000000 30.000000 0.000000
0.000000 0.000000 30.000000
C Cl H N O
35 1 42 3 2
Cartesian
10.951843 15.075224 17.701783
12.189972 15.056866 17.312426
13.185155 15.056298 18.483631
12.772891 15.049633 15.994611
12.885474 15.124527 13.537944
14.280998 15.089672 13.211648
14.669836 15.242003 11.871537
15.977146 15.249266 11.508505
16.952116 15.104562 12.467751
16.603580 14.949484 13.807510
17.651067 14.793256 14.829248
20.011301 14.747567 15.230450
20.711565 13.558359 15.267236
20.187848 12.446217 14.442450
21.134988 11.271362 14.559993
20.099294 12.819744 12.985543
21.844662 13.381384 16.011518
22.319697 14.430786 16.763469
21.648946 15.626296 16.749764
20.486062 15.794241 15.980706
19.786104 17.082775 15.970610
20.499944 18.077819 16.897462
19.766681 17.738130 14.601888
10.711515 15.094192 14.634960
9.978919 13.947736 14.480872
10.629911 12.618721 14.384876
9.625682 11.639676 13.696515
10.812926 11.981028 15.742594
8.575541 14.021892 14.332366
7.945237 15.236613 14.339036
8.683056 16.384865 14.490456
10.069406 16.310746 14.637202
10.792955 17.569793 14.739679
9.873160 18.699969 14.184988
11.100481 18.051916 16.142557
17.317177 14.493907 16.510496
10.693751 15.088917 18.780425
10.090534 15.069724 17.069602
12.984268 16.007719 19.041733
12.868693 14.219010 19.124543
14.208554 15.002632 18.113218
13.931808 15.355786 11.109983
16.286806 15.368119 10.458132
18.007937 15.103031 12.224707
19.169404 12.154978 14.781304
21.165808 10.945183 15.602601
22.124113 11.626215 14.249225
20.787051 10.431258 13.911136
20.798497 12.201733 12.365209
20.274150 13.911075 12.807018
19.078026 12.599774 12.624438
22.411591 12.466418 16.060117
23.214959 14.342166 17.371855
22.046077 16.432507 17.349028
18.747162 17.064658 16.331421
21.509375 18.203756 16.517087
20.498794 17.608526 17.903857
19.905302 19.014878 16.911402
20.729556 18.176253 14.308747
19.054108 18.596301 14.689767
19.391213 17.092367 13.807067
11.583759 12.607574 13.858662
9.197780 12.209480 12.866272
10.200152 10.743986 13.383205
8.884438 11.304798 14.442251
11.573777 11.148812 15.683036
11.121614 12.609989 16.549599
9.873502 11.411873 16.049836
8.011048 13.129302 14.218635
6.858670 15.318562 14.226891
8.145105 17.316521 14.492005
11.678363 17.601051 14.072660
10.552376 19.534817 13.853292
9.138324 19.024195 14.909467
9.357318 18.362538 13.268154
12.120019 17.766856 16.399469
10.354130 17.688857 16.847149
11.126006 19.179214 16.117318
12.155290 15.073803 14.734035
18.867134 14.863764 14.457785
15.301999 14.956243 14.058852
14.081616 15.019437 16.003933
12.106904 15.228818 12.489591
