Molecule_POSCAR_05
1.0
30.000000 0.000000 0.000000
0.000000 30.000000 0.000000
0.000000 0.000000 30.000000
C H S
42 42 2
Cartesian
26.532643 15.724516 14.517929
26.205900 14.630605 15.502511
24.730311 14.304028 15.522724
23.956993 15.527083 15.909565
22.466587 15.277419 15.952423
21.975016 14.836214 14.593679
20.490940 14.585728 14.624953
19.878372 13.413339 14.914029
18.547113 13.342376 14.902122
17.841315 14.552934 14.571032
16.402172 14.752122 14.602364
15.638491 13.728429 14.063356
16.157809 12.684754 13.333392
15.370939 11.702045 12.738076
15.917301 10.665236 12.014661
15.103119 9.689941 11.426216
13.745557 9.757297 11.564857
13.193529 10.809725 12.298999
14.006315 11.758477 12.869944
13.471169 12.816217 13.606296
14.251311 13.793545 14.201921
13.632784 14.839946 14.853795
12.196795 14.836238 15.120853
11.397977 13.860347 15.579548
10.109966 14.087545 15.830749
9.641683 15.393021 15.592473
8.267628 15.923763 15.784828
7.471005 15.750977 14.529628
6.070273 16.266406 14.643830
5.301734 15.557353 15.733099
3.881750 16.087427 15.838338
3.136931 15.890119 14.545531
14.431113 15.836894 15.369626
13.897620 16.922515 16.065433
14.677906 17.923414 16.611561
14.035304 18.946054 17.275631
14.817547 19.951860 17.824359
16.192511 19.907228 17.695914
16.794423 18.857210 17.018350
16.031737 17.854519 16.470108
16.638078 16.798563 15.788701
15.819990 15.830950 15.264420
26.279957 16.738754 14.917427
26.109685 15.556735 13.515224
27.657392 15.734522 14.429037
26.823448 13.747278 15.243800
26.563772 14.978969 16.500923
24.550059 13.520482 16.264048
24.461661 13.897337 14.533245
24.266042 15.811679 16.933035
24.178850 16.389740 15.241328
21.992075 16.273561 16.148034
22.219591 14.576448 16.747503
22.432195 13.853587 14.364853
22.253539 15.519277 13.793812
20.486077 12.504023 15.162608
17.950718 12.416292 15.169333
17.203519 12.596263 13.136274
16.982967 10.579465 11.884119
15.562033 8.888335 10.864421
13.139183 8.995970 11.103414
12.131451 10.866738 12.410339
12.411309 12.876936 13.667875
11.843632 12.838246 15.787852
9.368756 13.320025 16.217271
7.804579 15.386093 16.651539
8.288550 16.997709 16.086502
7.399680 14.644929 14.333951
8.001182 16.259726 13.707196
5.512871 16.097766 13.700565
6.045020 17.371754 14.862623
5.203342 14.490162 15.419994
5.788219 15.607116 16.719102
3.367802 15.471795 16.619033
3.861248 17.156064 16.108363
2.136118 15.449995 14.724826
3.669814 15.218051 13.866975
3.002692 16.861614 14.002727
12.828132 16.949131 16.188878
12.963427 19.013160 17.395169
14.308784 20.748192 18.342075
16.797049 20.700580 18.129682
17.857706 18.797207 16.903637
17.703565 16.751290 15.694193
11.078618 16.238233 15.015610
19.186032 15.634389 14.323754
