Molecule_POSCAR_02                      
   1.00000000000000     
    20.0000000000000000    0.0000000000000000    0.0000000000000000
     0.0000000000000000   20.0000000000000000    0.0000000000000000
     0.0000000000000000    0.0000000000000000   20.0000000000000000
   C    H    N    O 
     3     5     5     1
Direct
  0.5708368000000021  0.4918814500000011  0.5264807499999975
  0.4623039000000020  0.4696166000000019  0.4860153999999994
  0.4078349500000016  0.5118358499999971  0.4828111500000034
  0.6729600999999974  0.4876210999999984  0.4891233499999998
  0.6502229000000028  0.5591176499999975  0.5426049499999976
  0.5551306500000024  0.4752491500000033  0.5752567999999982
  0.5470710000000025  0.5082700500000001  0.4309940500000025
  0.3988552499999969  0.6150779499999999  0.5067001500000003
  0.6375744500000025  0.5137920000000022  0.5178764999999999
  0.5297650999999988  0.4917273499999979  0.4774711499999995
  0.4374887999999970  0.4084991000000002  0.4980699999999985
  0.3715279999999979  0.4124106499999982  0.5021308500000004
  0.3511393499999969  0.4750380500000020  0.4930560499999999
  0.4072888000000034  0.5798630500000002  0.4714089000000001
 
  0.00000000E+00  0.00000000E+00  0.00000000E+00
  0.00000000E+00  0.00000000E+00  0.00000000E+00
  0.00000000E+00  0.00000000E+00  0.00000000E+00
  0.00000000E+00  0.00000000E+00  0.00000000E+00
  0.00000000E+00  0.00000000E+00  0.00000000E+00
  0.00000000E+00  0.00000000E+00  0.00000000E+00
  0.00000000E+00  0.00000000E+00  0.00000000E+00
  0.00000000E+00  0.00000000E+00  0.00000000E+00
  0.00000000E+00  0.00000000E+00  0.00000000E+00
  0.00000000E+00  0.00000000E+00  0.00000000E+00
  0.00000000E+00  0.00000000E+00  0.00000000E+00
  0.00000000E+00  0.00000000E+00  0.00000000E+00
  0.00000000E+00  0.00000000E+00  0.00000000E+00
  0.00000000E+00  0.00000000E+00  0.00000000E+00
