   14   14    1    1
  0.5714286E+03  0.2000000E-08  0.2000000E-08  0.2000000E-08  0.5000000E-15
  1.000000000000000E-004
  CAR 
 QM9_Benchmark_B3LYP_Gap_Dipole          
     48      1     32
 
  0.0000000E+00  0.0000000E+00  0.0000000E+00  0.1000000E+01
      1        -29.094810   1.000000
      2        -28.384292   1.000000
      3        -27.691425   1.000000
      4        -25.691672   1.000000
      5        -22.438165   1.000000
      6        -20.931444   1.000000
      7        -19.528933   1.000000
      8        -17.611213   1.000000
      9        -16.631779   1.000000
     10        -16.254903   1.000000
     11        -15.634680   1.000000
     12        -14.933061   1.000000
     13        -14.159434   1.000000
     14        -13.374591   1.000000
     15        -12.032546   1.000000
     16        -11.608107   1.000000
     17        -10.233407   1.000000
     18         -9.176721   1.000000
     19         -9.090080   1.000000
     20         -8.664335   1.000000
     21         -6.771990   1.000000
     22         -6.399231   1.000000
     23         -6.133546   1.000000
     24         -5.899888   1.000000
     25         -3.269724   0.000000
     26         -1.445682   0.000000
     27         -0.716331   0.000000
     28         -0.510569   0.000000
     29         -0.046004   0.000000
     30          0.029448   0.000000
     31          0.103048   0.000000
     32          0.374842   0.000000
