 vasp.6.4.2 20Jul23 (build Mar 28 2025 16:44:38) complex                        
  
 executed on             LinuxIFC date 2026.02.17  14:42:24
 running   32 mpi-ranks, on    1 nodes
 distrk:  each k-point on   32 cores,    1 groups
 distr:  one band on NCORE=   4 cores,    8 groups


--------------------------------------------------------------------------------------------------------


 INCAR:
   SYSTEM = QM9_Benchmark_B3LYP_Gap_Dipole
   PREC = Accurate
   ENCUT = 500
   EDIFF = 1E-6
   ISMEAR = 0
   SIGMA = 0.05
   NELM = 100
   IBRION = -1
   NSW = 0
   LHFCALC = .TRUE.
   GGA = B3
   AEXX = 0.20
   AGGAX = 0.72
   AGGAC = 0.81
   ALDAC = 0.19
   ALGO = Damped
   TIME = 0.4
   LDIPOL = .TRUE.
   IDIPOL = 4
   DIPOL = 0.5 0.5 0.5
   LORBIT = 11
   NEDOS = 2000
   ISYM = 0
   LREAL = .FALSE.
   NCORE = 4

 POTCAR:    PAW_PBE C 08Apr2002                   
 POTCAR:    PAW_PBE H 15Jun2001                   
 POTCAR:    PAW_PBE N 08Apr2002                   
 POTCAR:    PAW_PBE O 08Apr2002                   
 POTCAR:    PAW_PBE C 08Apr2002                   
   VRHFIN =C: s2p2                                                                                  
   LEXCH  = PE                                                                                      
   EATOM  =   147.1560 eV,   10.8157 Ry                                                             
                                                                                                    
   TITEL  = PAW_PBE C 08Apr2002                                                                     
   LULTRA =        F    use ultrasoft PP ?                                                          
   IUNSCR =        1    unscreen: 0-lin 1-nonlin 2-no                                               
   RPACOR =    1.200    partial core radius                                                         
   POMASS =   12.011; ZVAL   =    4.000    mass and valenz                                          
   RCORE  =    1.500    outmost cutoff radius                                                       
   RWIGS  =    1.630; RWIGS  =    0.863    wigner-seitz radius (au A)                               
   ENMAX  =  400.000; ENMIN  =  300.000 eV                                                          
   ICORE  =        2    local potential                                                             
   LCOR   =        T    correct aug charges                                                         
   LPAW   =        T    paw PP                                                                      
   EAUG   =  644.873                                                                                
   DEXC   =    0.000                                                                                
   RMAX   =    1.529    core radius for proj-oper                                                   
   RAUG   =    1.300    factor for augmentation sphere                                              
   RDEP   =    1.501    radius for radial grids                                                     
   RDEPT  =    1.300    core radius for aug-charge                                                  
                                                                                                    
   Atomic configuration                                                                             
    4 entries                                                                                       
     n  l   j            E        occ.                                                              
     1  0  0.50      -273.3789   2.0000                                                             
     2  0  0.50       -13.7508   2.0000                                                             
     2  1  0.50        -5.2854   2.0000                                                             
     3  2  1.50        -5.4423   0.0000                                                             
   Description                                                                                      
     l       E           TYP  RCUT    TYP  RCUT                                                     
     0    -13.7508458     23  1.200                                                                 
     0     -8.2022199     23  1.200                                                                 
     1     -5.2854383     23  1.500                                                                 
     1     34.0145650     23  1.500                                                                 
     2     -5.4423304      7  1.500                                                                 
  local pseudopotential read in
  partial core-charges read in
  partial kinetic energy density read in
  atomic valenz-charges read in
  non local Contribution for L=           0  read in
    real space projection operators read in
  non local Contribution for L=           0  read in
    real space projection operators read in
  non local Contribution for L=           1  read in
    real space projection operators read in
  non local Contribution for L=           1  read in
    real space projection operators read in
    PAW grid and wavefunctions read in
 
   number of l-projection  operators is LMAX  =           4
   number of lm-projection operators is LMMAX =           8
 
 POTCAR:    PAW_PBE H 15Jun2001                   
   VRHFIN =H: ultrasoft test                                                                        
   LEXCH  = PE                                                                                      
   EATOM  =    12.4884 eV,    0.9179 Ry                                                             
                                                                                                    
   TITEL  = PAW_PBE H 15Jun2001                                                                     
   LULTRA =        F    use ultrasoft PP ?                                                          
   IUNSCR =        0    unscreen: 0-lin 1-nonlin 2-no                                               
   RPACOR =    0.000    partial core radius                                                         
   POMASS =    1.000; ZVAL   =    1.000    mass and valenz                                          
   RCORE  =    1.100    outmost cutoff radius                                                       
   RWIGS  =    0.700; RWIGS  =    0.370    wigner-seitz radius (au A)                               
   ENMAX  =  250.000; ENMIN  =  200.000 eV                                                          
   RCLOC  =    0.701    cutoff for local pot                                                        
   LCOR   =        T    correct aug charges                                                         
   LPAW   =        T    paw PP                                                                      
   EAUG   =  400.000                                                                                
   RMAX   =    1.123    core radius for proj-oper                                                   
   RAUG   =    1.200    factor for augmentation sphere                                              
   RDEP   =    1.112    radius for radial grids                                                     
   RDEPT  =    0.926    core radius for aug-charge                                                  
                                                                                                    
   Atomic configuration                                                                             
    2 entries                                                                                       
     n  l   j            E        occ.                                                              
     1  0  0.50        -6.4927   1.0000                                                             
     2  1  0.50        -3.4015   0.0000                                                             
   Description                                                                                      
     l       E           TYP  RCUT    TYP  RCUT                                                     
     0     -6.4927494     23  1.100                                                                 
     0      6.8029130     23  1.100                                                                 
     1     -4.0817478     23  1.100                                                                 
  local pseudopotential read in
  atomic valenz-charges read in
  non local Contribution for L=           0  read in
    real space projection operators read in
  non local Contribution for L=           0  read in
    real space projection operators read in
  non local Contribution for L=           1  read in
    real space projection operators read in
    PAW grid and wavefunctions read in
 
   number of l-projection  operators is LMAX  =           3
   number of lm-projection operators is LMMAX =           5
 
 POTCAR:    PAW_PBE N 08Apr2002                   
   VRHFIN =N: s2p3                                                                                  
   LEXCH  = PE                                                                                      
   EATOM  =   264.5486 eV,   19.4438 Ry                                                             
                                                                                                    
   TITEL  = PAW_PBE N 08Apr2002                                                                     
   LULTRA =        F    use ultrasoft PP ?                                                          
   IUNSCR =        1    unscreen: 0-lin 1-nonlin 2-no                                               
   RPACOR =    1.200    partial core radius                                                         
   POMASS =   14.001; ZVAL   =    5.000    mass and valenz                                          
   RCORE  =    1.500    outmost cutoff radius                                                       
   RWIGS  =    1.400; RWIGS  =    0.741    wigner-seitz radius (au A)                               
   ENMAX  =  400.000; ENMIN  =  300.000 eV                                                          
   ICORE  =        2    local potential                                                             
   LCOR   =        T    correct aug charges                                                         
   LPAW   =        T    paw PP                                                                      
   EAUG   =  627.112                                                                                
   DEXC   =    0.000                                                                                
   RMAX   =    1.529    core radius for proj-oper                                                   
   RAUG   =    1.300    factor for augmentation sphere                                              
   RDEP   =    1.514    radius for radial grids                                                     
   RDEPT  =    1.338    core radius for aug-charge                                                  
                                                                                                    
   Atomic configuration                                                                             
    4 entries                                                                                       
     n  l   j            E        occ.                                                              
     1  0  0.50      -384.7179   2.0000                                                             
     2  0  0.50       -18.5828   2.0000                                                             
     2  1  0.50        -7.0898   3.0000                                                             
     3  2  1.50        -6.8029   0.0000                                                             
   Description                                                                                      
     l       E           TYP  RCUT    TYP  RCUT                                                     
     0    -18.5828119     23  1.200                                                                 
     0    -13.5018863     23  1.200                                                                 
     1     -7.0897853     23  1.500                                                                 
     1      9.5240782     23  1.500                                                                 
     2     -6.8029130      7  1.500                                                                 
  local pseudopotential read in
  partial core-charges read in
  partial kinetic energy density read in
  atomic valenz-charges read in
  non local Contribution for L=           0  read in
    real space projection operators read in
  non local Contribution for L=           0  read in
    real space projection operators read in
  non local Contribution for L=           1  read in
    real space projection operators read in
  non local Contribution for L=           1  read in
    real space projection operators read in
    PAW grid and wavefunctions read in
 
   number of l-projection  operators is LMAX  =           4
   number of lm-projection operators is LMMAX =           8
 
 POTCAR:    PAW_PBE O 08Apr2002                   
   VRHFIN =O: s2p4                                                                                  
   LEXCH  = PE                                                                                      
   EATOM  =   432.3788 eV,   31.7789 Ry                                                             
                                                                                                    
   TITEL  = PAW_PBE O 08Apr2002                                                                     
   LULTRA =        F    use ultrasoft PP ?                                                          
   IUNSCR =        1    unscreen: 0-lin 1-nonlin 2-no                                               
   RPACOR =    1.200    partial core radius                                                         
   POMASS =   16.000; ZVAL   =    6.000    mass and valenz                                          
   RCORE  =    1.520    outmost cutoff radius                                                       
   RWIGS  =    1.550; RWIGS  =    0.820    wigner-seitz radius (au A)                               
   ENMAX  =  400.000; ENMIN  =  300.000 eV                                                          
   ICORE  =        2    local potential                                                             
   LCOR   =        T    correct aug charges                                                         
   LPAW   =        T    paw PP                                                                      
   EAUG   =  605.392                                                                                
   DEXC   =    0.000                                                                                
   RMAX   =    1.553    core radius for proj-oper                                                   
   RAUG   =    1.300    factor for augmentation sphere                                              
   RDEP   =    1.550    radius for radial grids                                                     
   RDEPT  =    1.329    core radius for aug-charge                                                  
                                                                                                    
   Atomic configuration                                                                             
    4 entries                                                                                       
     n  l   j            E        occ.                                                              
     1  0  0.50      -514.6923   2.0000                                                             
     2  0  0.50       -23.9615   2.0000                                                             
     2  1  0.50        -9.0305   4.0000                                                             
     3  2  1.50        -9.5241   0.0000                                                             
   Description                                                                                      
     l       E           TYP  RCUT    TYP  RCUT                                                     
     0    -23.9615318     23  1.200                                                                 
     0     -9.5240782     23  1.200                                                                 
     1     -9.0304911     23  1.520                                                                 
     1      8.1634956     23  1.520                                                                 
     2     -9.5240782      7  1.500                                                                 
  local pseudopotential read in
  partial core-charges read in
  partial kinetic energy density read in
  kinetic energy density of atom read in
  atomic valenz-charges read in
  non local Contribution for L=           0  read in
    real space projection operators read in
  non local Contribution for L=           0  read in
    real space projection operators read in
  non local Contribution for L=           1  read in
    real space projection operators read in
  non local Contribution for L=           1  read in
    real space projection operators read in
    PAW grid and wavefunctions read in
 
   number of l-projection  operators is LMAX  =           4
   number of lm-projection operators is LMMAX =           8
 
 -----------------------------------------------------------------------------
|                                                                             |
|               ----> ADVICE to this user running VASP <----                  |
|                                                                             |
|     You enforced a specific xc type in the INCAR file but a different       |
|     type was found in the POTCAR file.                                      |
|     I HOPE YOU KNOW WHAT YOU ARE DOING!                                     |
|                                                                             |
 -----------------------------------------------------------------------------

  PAW_PBE C 08Apr2002                   :
 energy of atom  1       EATOM= -147.1560
 kinetic energy error for atom=    0.0076 (will be added to EATOM!!)
  PAW_PBE H 15Jun2001                   :
 energy of atom  2       EATOM=  -12.4884
 kinetic energy error for atom=    0.0020 (will be added to EATOM!!)
  PAW_PBE N 08Apr2002                   :
 energy of atom  3       EATOM= -264.5486
 kinetic energy error for atom=    0.0138 (will be added to EATOM!!)
  PAW_PBE O 08Apr2002                   :
 energy of atom  4       EATOM= -432.3788
 kinetic energy error for atom=    0.0224 (will be added to EATOM!!)
 
 
 POSCAR: Molecule_POSCAR_02
  positions in cartesian coordinates
  No initial velocities read in
 exchange correlation table for  LEXCH =       11
   RHO(1)=    0.500       N(1)  =     2000
   RHO(2)=  100.500       N(2)  =     4000
 


--------------------------------------------------------------------------------------------------------


 ion  position               nearest neighbor table
   1  0.571  0.492  0.526-   6 1.08  10 1.28   9 1.42
   2  0.462  0.470  0.486-  11 1.34   3 1.38  10 1.43
   3  0.408  0.512  0.483-  13 1.37  14 1.38   2 1.38
   4  0.673  0.488  0.489-   9 1.05
   5  0.650  0.559  0.543-   9 1.06
   6  0.555  0.475  0.575-   1 1.08
   7  0.547  0.508  0.431-  10 1.05
   8  0.399  0.615  0.507-  14 1.01
   9  0.638  0.514  0.518-   4 1.05   5 1.06   1 1.42
  10  0.530  0.492  0.477-   7 1.05   1 1.28   2 1.43
  11  0.437  0.408  0.498-  12 1.32   2 1.34
  12  0.372  0.412  0.502-  11 1.32  13 1.33
  13  0.351  0.475  0.493-  12 1.33   3 1.37
  14  0.407  0.580  0.471-   8 1.01   3 1.38
 

IMPORTANT INFORMATION: All symmetrisations will be switched off!
NOSYMM: (Re-)initialisation of all symmetry stuff for point group C_1.


----------------------------------------------------------------------------------------

                                     Primitive cell                                     

  volume of cell :    8000.0000

  direct lattice vectors                    reciprocal lattice vectors
    20.000000000  0.000000000  0.000000000     0.050000000  0.000000000  0.000000000
     0.000000000 20.000000000  0.000000000     0.000000000  0.050000000  0.000000000
     0.000000000  0.000000000 20.000000000     0.000000000  0.000000000  0.050000000

  length of vectors
    20.000000000 20.000000000 20.000000000     0.050000000  0.050000000  0.050000000

  position of ions in fractional coordinates (direct lattice)
     0.570836800  0.491881450  0.526480750
     0.462303900  0.469616600  0.486015400
     0.407834950  0.511835850  0.482811150
     0.672960100  0.487621100  0.489123350
     0.650222900  0.559117650  0.542604950
     0.555130650  0.475249150  0.575256800
     0.547071000  0.508270050  0.430994050
     0.398855250  0.615077950  0.506700150
     0.637574450  0.513792000  0.517876500
     0.529765100  0.491727350  0.477471150
     0.437488800  0.408499100  0.498070000
     0.371528000  0.412410650  0.502130850
     0.351139350  0.475038050  0.493056050
     0.407288800  0.579863050  0.471408900

  ion indices of the primitive-cell ions
   primitive index   ion index
                 1           1
                 2           2
                 3           3
                 4           4
                 5           5
                 6           6
                 7           7
                 8           8
                 9           9
                10          10
                11          11
                12          12
                13          13
                14          14

----------------------------------------------------------------------------------------

 
 
 KPOINTS: Gamma-point only                        

Automatic generation of k-mesh.
 Grid dimensions read from file:
 generate k-points for:    1    1    1

 Generating k-lattice:

  Cartesian coordinates                     Fractional coordinates (reciprocal lattice)
     0.050000000  0.000000000  0.000000000     1.000000000  0.000000000  0.000000000
     0.000000000  0.050000000  0.000000000     0.000000000  1.000000000  0.000000000
     0.000000000  0.000000000  0.050000000     0.000000000  0.000000000  1.000000000

  Length of vectors
     0.050000000  0.050000000  0.050000000

  Shift w.r.t. Gamma in fractional coordinates (k-lattice)
     0.000000000  0.000000000  0.000000000

 
 Subroutine IBZKPT returns following result:
 ===========================================
 
 Found      1 irreducible k-points:
 
 Following reciprocal coordinates:
            Coordinates               Weight
  0.000000  0.000000  0.000000      1.000000
 
 Following cartesian coordinates:
            Coordinates               Weight
  0.000000  0.000000  0.000000      1.000000
 
 
 Subroutine IBZKPT_HF returns following result:
 ==============================================
 
 Found      1 k-points in 1st BZ
 the following      1 k-points will be used (e.g. in the exchange kernel)
 Following reciprocal coordinates:   # in IRBZ
  0.000000  0.000000  0.000000    1.00000000   1 t-inv F


--------------------------------------------------------------------------------------------------------




 Dimension of arrays:
   k-points           NKPTS =      1   k-points in BZ     NKDIM =      1   number of bands    NBANDS=     32
   number of dos      NEDOS =   2000   number of ions     NIONS =     14
   non local maximal  LDIM  =      4   non local SUM 2l+1 LMDIM =      8
   total plane-waves  NPLWV = ******
   max r-space proj   IRMAX =      1   max aug-charges    IRDMAX=   5672
   dimension x,y,z NGX =   150 NGY =  150 NGZ =  150
   dimension x,y,z NGXF=   300 NGYF=  300 NGZF=  300
   support grid    NGXF=   300 NGYF=  300 NGZF=  300
   ions per type =               3   5   5   1
   NGX,Y,Z   is equivalent  to a cutoff of  12.47, 12.47, 12.47 a.u.
   NGXF,Y,Z  is equivalent  to a cutoff of  24.94, 24.94, 24.94 a.u.

 SYSTEM =  QM9_Benchmark_B3LYP_Gap_Dipole          
 POSCAR =  Molecule_POSCAR_02                      

 Startparameter for this run:
   NWRITE =      2    write-flag & timer
   PREC   = accura    normal or accurate (medium, high low for compatibility)
   ISTART =      0    job   : 0-new  1-cont  2-samecut
   ICHARG =      2    charge: 1-file 2-atom 10-const
   ISPIN  =      1    spin polarized calculation?
   LNONCOLLINEAR =      F non collinear calculations
   LSORBIT =      F    spin-orbit coupling
   INIWAV =      1    electr: 0-lowe 1-rand  2-diag
   LASPH  =      F    aspherical Exc in radial PAW
 Electronic Relaxation 1
   ENCUT  =  500.0 eV  36.75 Ry    6.06 a.u.  36.46 36.46 36.46*2*pi/ulx,y,z
   ENINI  =  500.0     initial cutoff
   ENAUG  =  644.9 eV  augmentation charge cutoff
   NELM   =    100;   NELMIN=  2; NELMDL=  0     # of ELM steps 
   EDIFF  = 0.1E-05   stopping-criterion for ELM
   LREAL  =      F    real-space projection
   NLSPLINE    = F    spline interpolate recip. space projectors
   LCOMPAT=      F    compatible to vasp.4.4
   GGA_COMPAT  = T    GGA compatible to vasp.4.4-vasp.4.6
   LMAXPAW     = -100 max onsite density
   LMAXMIX     =    2 max onsite mixed and CHGCAR
   VOSKOWN=      0    Vosko Wilk Nusair interpolation
   ROPT   =    0.00000   0.00000   0.00000   0.00000
 Ionic relaxation
   EDIFFG = 0.1E-04   stopping-criterion for IOM
   NSW    =      0    number of steps for IOM
   NBLOCK =      1;   KBLOCK =      1    inner block; outer block 
   IBRION =     -1    ionic relax: 0-MD 1-quasi-New 2-CG
   NFREE  =      0    steps in history (QN), initial steepest desc. (CG)
   ISIF   =      0    stress and relaxation
   IWAVPR =     10    prediction:  0-non 1-charg 2-wave 3-comb
   ISYM   =      0    0-nonsym 1-usesym 2-fastsym
   LCORR  =      T    Harris-Foulkes like correction to forces

   POTIM  = 0.5000    time-step for ionic-motion
   TEIN   =    0.0    initial temperature
   TEBEG  =    0.0;   TEEND  =   0.0 temperature during run
   SMASS  =  -3.00    Nose mass-parameter (am)
   estimated Nose-frequenzy (Omega)   =  0.10E-29 period in steps = 0.13E+47 mass=  -0.914E-26a.u.
   SCALEE = 1.0000    scale energy and forces
   NPACO  =    256;   APACO  = 10.0  distance and # of slots for P.C.
   PSTRESS=    0.0 pullay stress

  Mass of Ions in am
   POMASS =  12.01  1.00 14.00 16.00
  Ionic Valenz
   ZVAL   =   4.00  1.00  5.00  6.00
  Atomic Wigner-Seitz radii
   RWIGS  =  -1.00 -1.00 -1.00 -1.00
  virtual crystal weights 
   VCA    =   1.00  1.00  1.00  1.00
   NELECT =      48.0000    total number of electrons
   NUPDOWN=      -1.0000    fix difference up-down

 DOS related values:
   EMIN   =  10.00;   EMAX   =-10.00  energy-range for DOS
   EFERMI =   0.00;   METHOD = LEGACY      
   ISMEAR =     0;   SIGMA  =   0.05  broadening in eV -4-tet -1-fermi 0-gaus

 Electronic relaxation 2 (details)
   IALGO  =     53    algorithm
   LDIAG  =      T    sub-space diagonalisation (order eigenvalues)
   LSUBROT=      F    optimize rotation matrix (better conditioning)
   TURBO    =      0    0=normal 1=particle mesh
   IRESTART =      0    0=no restart 2=restart with 2 vectors
   NREBOOT  =      0    no. of reboots
   NMIN     =      0    reboot dimension
   EREF     =   0.00    reference energy to select bands
   IMIX   =      4    mixing-type and parameters
     AMIX     =   0.40;   BMIX     =  1.00
     AMIX_MAG =   1.60;   BMIX_MAG =  1.00
     AMIN     =   0.10
     WC   =   100.;   INIMIX=   1;  MIXPRE=   1;  MAXMIX= -45

 Intra band minimization:
   WEIMIN = 0.0000     energy-eigenvalue tresh-hold
   EBREAK =  0.78E-08  absolut break condition
   DEPER  =   0.30     relativ break condition  

   TIME   =   0.40     timestep for ELM

  volume/ion in A,a.u.               =     571.43      3856.19
  Fermi-wavevector in a.u.,A,eV,Ry     =   0.297481  0.562157  1.204043  0.088495
  Thomas-Fermi vector in A             =   1.163009
 
 Write flags
   LWAVE        =      T    write WAVECAR
   LDOWNSAMPLE  =      F    k-point downsampling of WAVECAR
   LCHARG       =      T    write CHGCAR
   LVTOT        =      F    write LOCPOT, total local potential
   LVHAR        =      F    write LOCPOT, Hartree potential only
   LELF         =      F    write electronic localiz. function (ELF)
   LORBIT       =     11    0 simple, 1 ext, 2 COOP (PROOUT), +10 PAW based schemes


 Dipole corrections
   LMONO  =      F    monopole corrections only (constant potential shift)
   LDIPOL =      T    correct potential (dipole corrections)
   IDIPOL =      4    1-x, 2-y, 3-z, 4-all directions 
   EPSILON=  1.0000000 bulk dielectric constant

 Exchange correlation treatment:
   GGA     =    B3    GGA type
   LEXCH   =    11    internal setting for exchange type
   LIBXC   =     F    Libxc                    
   VOSKOWN =     0    Vosko Wilk Nusair interpolation
   EXXOEP  =     0    0=HF, 1=EXX-LHF (local Hartree Fock) 2=EXX OEP
   LHFCALC =     T    Hartree Fock is set to
   LSYMGRAD=     F    symmetrize gradient (conserves proper symmetry)
   PRECFOCK=normal    Normal, Fast or Accurate (Low or Medium for compatibility)
   LRHFCALC=     F    long range Hartree Fock
   LRSCOR  =     F    long range correlation only (use DFT for short range part)
   LTHOMAS =     F    Thomas Fermi screening in HF
   LMODELHF=     F    short range full HF, long range fraction AEXX
   FOCKCORR=     1    mode to apply convergence corrections
   LFOCKACE=     T    use Adeptively-Compressed-Exchange operator
   ENCUT4O =  -1.0   cutoff for four orbital integrals eV
   LMAXFOCK=     4    L truncation for augmentation on plane wave grid
   LMAXFOCKAE=  -1    L truncation for all-electron charge restoration on plane wave grid
   NMAXFOCKAE=   1    number of basis functions for all-electron charge restoration
   LFOCKAEDFT=     F  apply the AE augmentation even for DFT
   NKREDX  =     1    reduce k-point grid by
   NKREDY  =     1    reduce k-point grid by
   NKREDZ  =     1    reduce k-point grid by
   SHIFTRED=     F    shift reduced grid of Gamma
   HFKIDENT=     F    idential grid for each k-point
   ODDONLY =     F    use only odd q-grid points
   EVENONLY=     F    use only even q-grid points
   HFALPHA =   -1.0000 decay constant for conv. correction
   MCALPHA =    0.0000 extent of test-charge in conv. correction in multipole expansion
   AEXX    =    0.2000 exact exchange contribution
   HFSCREEN=    0.0000 screening length (either q_TF or 0.3 A-1)
   HFSCREENC=   0.0000 screening length for correlation (either q_TF or 0.3 A-1)
   HFRCUT  =    0.0000 spherical cutoff for potential kernel
   ALDAX   =    0.8000 LDA exchange part
   AGGAX   =    0.7200 GGA exchange part
   ALDAC   =    0.1900 LDA correlation
   AGGAC   =    0.8100 GGA correlation
   ENCUTFOCK=  -1.0 apply spherical cutoff to Coloumb kernel
   NBANDSGWLOW=     1    first orbital included in HF term
   NBLOCK_FOCK=    64    blocking factor in FOCK_ACC

 Linear response parameters
   LEPSILON=     F    determine dielectric tensor
   LRPA    =     F    only Hartree local field effects (RPA)
   LNABLA  =     F    use nabla operator in PAW spheres
   LVEL    =     F    velocity operator in full k-point grid
   CSHIFT  =0.1000    complex shift for real part using Kramers Kronig
   OMEGAMAX=  -1.0    maximum frequency
   DEG_THRESHOLD= 0.2000000E-02 threshold for treating states as degnerate
   RTIME   =   -0.100 relaxation time in fs
  (WPLASMAI=    0.000 imaginary part of plasma frequency in eV, 0.658/RTIME)
   DFIELD  = 0.0000000 0.0000000 0.0000000 field for delta impulse in time
 
  Optional k-point grid parameters
   LKPOINTS_OPT  =     F    use optional k-point grid
   KPOINTS_OPT_MODE=     1    mode for optional k-point grid
 
 Orbital magnetization related:
   ORBITALMAG=     F  switch on orbital magnetization
   LCHIMAG   =     F  perturbation theory with respect to B field
   DQ        =  0.001000  dq finite difference perturbation B field
   LLRAUG    =     F  two centre corrections for induced B field
   LBONE     =     F  B-component reconstruction in AE one-centre
   LVGVCALC  =     T  calculate vGv susceptibility
   LVGVAPPL  =     F  apply vGv susceptibility instead of pGv for G=0

 Random number generation:
   RANDOM_GENERATOR = DEFAULT
   PCG_SEED         = not used


--------------------------------------------------------------------------------------------------------


 Static calculation
 charge density and potential will be updated during run
 non-spin polarized calculation
 Conjugate gradient for all bands (Freysoldt, et al. PRB 79, 241103 (2009))
 perform sub-space diagonalisation
    before iterative eigenvector-optimisation
 modified Broyden-mixing scheme, WC =      100.0
 initial mixing is a Kerker type mixing with AMIX =  0.4000 and BMIX =      1.0000
 Hartree-type preconditioning will be used
 using additional bands            8
 reciprocal scheme for non local part
 use partial core corrections
 no Harris-corrections to forces 
 use gradient corrections 
 use of overlap-Matrix (Vanderbilt PP)
 Gauss-broadening in eV      SIGMA  =   0.05


--------------------------------------------------------------------------------------------------------


  energy-cutoff  :      500.00
  volume of cell :     8000.00
      direct lattice vectors                 reciprocal lattice vectors
    20.000000000  0.000000000  0.000000000     0.050000000  0.000000000  0.000000000
     0.000000000 20.000000000  0.000000000     0.000000000  0.050000000  0.000000000
     0.000000000  0.000000000 20.000000000     0.000000000  0.000000000  0.050000000

  length of vectors
    20.000000000 20.000000000 20.000000000     0.050000000  0.050000000  0.050000000


 
 k-points in units of 2pi/SCALE and weight: Gamma-point only                        
   0.00000000  0.00000000  0.00000000       1.000
 
 k-points in reciprocal lattice and weights: Gamma-point only                        
   0.00000000  0.00000000  0.00000000       1.000
 
 position of ions in fractional coordinates (direct lattice) 
   0.57083680  0.49188145  0.52648075
   0.46230390  0.46961660  0.48601540
   0.40783495  0.51183585  0.48281115
   0.67296010  0.48762110  0.48912335
   0.65022290  0.55911765  0.54260495
   0.55513065  0.47524915  0.57525680
   0.54707100  0.50827005  0.43099405
   0.39885525  0.61507795  0.50670015
   0.63757445  0.51379200  0.51787650
   0.52976510  0.49172735  0.47747115
   0.43748880  0.40849910  0.49807000
   0.37152800  0.41241065  0.50213085
   0.35113935  0.47503805  0.49305605
   0.40728880  0.57986305  0.47140890
 
 position of ions in cartesian coordinates  (Angst):
  11.41673600  9.83762900 10.52961500
   9.24607800  9.39233200  9.72030800
   8.15669900 10.23671700  9.65622300
  13.45920200  9.75242200  9.78246700
  13.00445800 11.18235300 10.85209900
  11.10261300  9.50498300 11.50513600
  10.94142000 10.16540100  8.61988100
   7.97710500 12.30155900 10.13400300
  12.75148900 10.27584000 10.35753000
  10.59530200  9.83454700  9.54942300
   8.74977600  8.16998200  9.96140000
   7.43056000  8.24821300 10.04261700
   7.02278700  9.50076100  9.86112100
   8.14577600 11.59726100  9.42817800
 


--------------------------------------------------------------------------------------------------------


 k-point   1 :   0.0000 0.0000 0.0000  plane waves:  203269

 maximum and minimum number of plane-waves per node :     50840    50799

 maximum number of plane-waves:    203269
 maximum index in each direction: 
   IXMAX=   36   IYMAX=   36   IZMAX=   36
   IXMIN=  -36   IYMIN=  -36   IZMIN=  -36


 parallel 3D FFT for wavefunctions:
    minimum data exchange during FFTs selected (reduces bandwidth)
 parallel 3D FFT for charge:
    minimum data exchange during FFTs selected (reduces bandwidth)


 FFT grid for exact exchange (Hartree Fock) 
  NGX =112; NGY =112; NGZ =112

 
 Radii for the augmentation spheres in the non-local exchange
 for species   1 augmentation radius   0.874 (default was   0.699)
       energy cutoff for augmentation   2000.0
 for species   2 augmentation radius   0.650 (default was   0.520)
       energy cutoff for augmentation   2000.0
 for species   3 augmentation radius   0.886 (default was   0.709)
       energy cutoff for augmentation   2000.0
 for species   4 augmentation radius   0.902 (default was   0.722)
       energy cutoff for augmentation   2000.0

 real space projection operators:
  total allocation   :        392.91 KBytes
  max/ min on nodes  :         99.21         97.31

 Maximum index for augmentation-charges in exchange          134
  SETUP_FOCK is finished

 total amount of memory used by VASP MPI-rank0   239588. kBytes
=======================================================================

   base      :      30000. kBytes
   nonl-proj :      24399. kBytes
   fftplans  :      75720. kBytes
   grid      :      99427. kBytes
   one-center:         12. kBytes
   HF        :         13. kBytes
   nonlr-proj:        252. kBytes
   wavefun   :       9765. kBytes
 
     INWAV:  cpu time      0.0000: real time      0.0000
 Broyden mixing: mesh for mixing (old mesh)
   NGX = 73   NGY = 73   NGZ = 73
  (NGX  =300   NGY  =300   NGZ  =300)
  gives a total of 389017 points

 initial charge density was supplied:
 charge density of overlapping atoms calculated
 number of electron      48.0000000 magnetization 
 charge density for first step will be calculated from the start-wavefunctions


--------------------------------------------------------------------------------------------------------


 Maximum index for augmentation-charges          355 (set IRDMAX)


--------------------------------------------------------------------------------------------------------


    FEWALD:  cpu time      0.0001: real time      0.0001


--------------------------------------- Ionic step        1  -------------------------------------------




--------------------------------------- Iteration      1(   1)  ---------------------------------------


    POTLOK:  cpu time      0.4010: real time      0.4044
    SETDIJ:  cpu time      0.0031: real time      0.0032
    TRIAL :  cpu time      0.6528: real time      0.6590
    CORREC:  cpu time      0.0018: real time      0.0020
    --------------------------------------------
      LOOP:  cpu time      1.0610: real time      1.0980

 eigenvalue-minimisations  :    64
 total energy-change (2. order) : 0.7067146E+03  (-0.5307507E+03)
 number of electron      48.0000000 magnetization 
 augmentation part       48.0000000 magnetization 

 DIPCOR: dipole corrections for dipol
 direction  1 min pos     1, direction  2 min pos     1, direction  3 min pos     1,
 dipolmoment           0.000048      0.000034      0.000006 electrons x Angstroem
 Tr[quadrupol]        31.985051

 energy correction for charged system         0.000000 eV
 dipol+quadrupol energy correction           -0.000000 eV
 added-field ion interaction          0.000012 eV  (added to PSCEN)


 Free energy of the ion-electron system (eV)
  ---------------------------------------------------
  alpha Z        PSCENC =         1.22818794
  Ewald energy   TEWEN  =      3801.54298216
  -Hartree energ DENC   =     -5484.22246037
  -exchange      EXHF   =         0.00000000
  -V(xc)+E(xc)   XCENC  =       177.30080822
  PAW double counting   =      1707.44941127    -1902.48035055
  entropy T*S    EENTRO =        -0.00220653
  eigenvalues    EBANDS =       160.90974352
  atomic energy  EATOM  =      2244.98853179
  ---------------------------------------------------
  free energy    TOTEN  =       706.71464744 eV

  energy without entropy =      706.71685398  energy(sigma->0) =      706.71575071
  exchange ACFDT corr.  =         0.00000000  see jH, gK, PRB 81, 115126


--------------------------------------------------------------------------------------------------------




--------------------------------------- Iteration      1(   2)  ---------------------------------------


    TRIAL :  cpu time      1.0867: real time      1.1421
    CORREC:  cpu time      0.0011: real time      0.0011
    --------------------------------------------
      LOOP:  cpu time      1.0880: real time      1.1434

 eigenvalue-minimisations  :   128
 total energy-change (2. order) :-0.2078044E+03  (-0.1981802E+03)
 number of electron      48.0000000 magnetization 
 augmentation part       48.0000000 magnetization 

 DIPCOR: dipole corrections for dipol
 direction  1 min pos     1, direction  2 min pos     1, direction  3 min pos     1,
 dipolmoment           0.000048      0.000034      0.000006 electrons x Angstroem
 Tr[quadrupol]        31.985051

 energy correction for charged system         0.000000 eV
 dipol+quadrupol energy correction           -0.000000 eV
 added-field ion interaction          0.000012 eV  (added to PSCEN)


 Free energy of the ion-electron system (eV)
  ---------------------------------------------------
  alpha Z        PSCENC =         1.22818794
  Ewald energy   TEWEN  =      3801.54298216
  -Hartree energ DENC   =     -5484.22246037
  -exchange      EXHF   =         0.00000000
  -V(xc)+E(xc)   XCENC  =       177.30080822
  PAW double counting   =      1707.44941127    -1902.48035055
  entropy T*S    EENTRO =        -0.00116406
  eigenvalues    EBANDS =       -46.89565694
  atomic energy  EATOM  =      2244.98853179
  ---------------------------------------------------
  free energy    TOTEN  =       498.91028946 eV

  energy without entropy =      498.91145352  energy(sigma->0) =      498.91087149
  exchange ACFDT corr.  =         0.00000000  see jH, gK, PRB 81, 115126


--------------------------------------------------------------------------------------------------------




--------------------------------------- Iteration      1(   3)  ---------------------------------------


    TRIAL :  cpu time      1.0816: real time      1.0924
    CORREC:  cpu time      0.0013: real time      0.0013
    --------------------------------------------
      LOOP:  cpu time      1.0830: real time      1.0937

 eigenvalue-minimisations  :   128
 total energy-change (2. order) :-0.2904149E+03  (-0.2725307E+03)
 number of electron      48.0000000 magnetization 
 augmentation part       48.0000000 magnetization 

 DIPCOR: dipole corrections for dipol
 direction  1 min pos     1, direction  2 min pos     1, direction  3 min pos     1,
 dipolmoment           0.000048      0.000034      0.000006 electrons x Angstroem
 Tr[quadrupol]        31.985051

 energy correction for charged system         0.000000 eV
 dipol+quadrupol energy correction           -0.000000 eV
 added-field ion interaction          0.000012 eV  (added to PSCEN)


 Free energy of the ion-electron system (eV)
  ---------------------------------------------------
  alpha Z        PSCENC =         1.22818794
  Ewald energy   TEWEN  =      3801.54298216
  -Hartree energ DENC   =     -5484.22246037
  -exchange      EXHF   =         0.00000000
  -V(xc)+E(xc)   XCENC  =       177.30080822
  PAW double counting   =      1707.44941127    -1902.48035055
  entropy T*S    EENTRO =        -0.03341574
  eigenvalues    EBANDS =      -337.27831020
  atomic energy  EATOM  =      2244.98853179
  ---------------------------------------------------
  free energy    TOTEN  =       208.49538452 eV

  energy without entropy =      208.52880026  energy(sigma->0) =      208.51209239
  exchange ACFDT corr.  =         0.00000000  see jH, gK, PRB 81, 115126


--------------------------------------------------------------------------------------------------------




--------------------------------------- Iteration      1(   4)  ---------------------------------------


    TRIAL :  cpu time      1.0808: real time      1.0902
    CORREC:  cpu time      0.0010: real time      0.0011
    --------------------------------------------
      LOOP:  cpu time      1.0819: real time      1.0915

 eigenvalue-minimisations  :   128
 total energy-change (2. order) :-0.2350816E+03  (-0.2207217E+03)
 number of electron      48.0000000 magnetization 
 augmentation part       48.0000000 magnetization 

 DIPCOR: dipole corrections for dipol
 direction  1 min pos     1, direction  2 min pos     1, direction  3 min pos     1,
 dipolmoment           0.000048      0.000034      0.000006 electrons x Angstroem
 Tr[quadrupol]        31.985051

 energy correction for charged system         0.000000 eV
 dipol+quadrupol energy correction           -0.000000 eV
 added-field ion interaction          0.000012 eV  (added to PSCEN)


 Free energy of the ion-electron system (eV)
  ---------------------------------------------------
  alpha Z        PSCENC =         1.22818794
  Ewald energy   TEWEN  =      3801.54298216
  -Hartree energ DENC   =     -5484.22246037
  -exchange      EXHF   =         0.00000000
  -V(xc)+E(xc)   XCENC  =       177.30080822
  PAW double counting   =      1707.44941127    -1902.48035055
  entropy T*S    EENTRO =        -0.02321644
  eigenvalues    EBANDS =      -572.37008572
  atomic energy  EATOM  =      2244.98853179
  ---------------------------------------------------
  free energy    TOTEN  =       -26.58619171 eV

  energy without entropy =      -26.56297527  energy(sigma->0) =      -26.57458349
  exchange ACFDT corr.  =         0.00000000  see jH, gK, PRB 81, 115126


--------------------------------------------------------------------------------------------------------




--------------------------------------- Iteration      1(   5)  ---------------------------------------


    POTLOK:  cpu time      0.7677: real time      0.7714
    SETDIJ:  cpu time      0.0020: real time      0.0020
    TRIAL :  cpu time      4.9133: real time      4.9654
    CORREC:  cpu time      0.0003: real time      0.0003
    CHARGE:  cpu time      0.1098: real time      0.1115
    --------------------------------------------
      LOOP:  cpu time      5.7933: real time      5.8508

 eigenvalue-minimisations  :   128
 total energy-change (2. order) : 0.5880219E+02  (-0.1278712E+03)
 number of electron      48.0000001 magnetization 
 augmentation part        1.8008984 magnetization 

 DIPCOR: dipole corrections for dipol
 direction  1 min pos     1, direction  2 min pos     1, direction  3 min pos     1,
 dipolmoment           0.000048      0.000034      0.000006 electrons x Angstroem
 Tr[quadrupol]        31.985051

 energy correction for charged system         0.000000 eV
 dipol+quadrupol energy correction           -0.000000 eV
 added-field ion interaction          0.000012 eV  (added to PSCEN)


 Free energy of the ion-electron system (eV)
  ---------------------------------------------------
  alpha Z        PSCENC =         1.22818794
  Ewald energy   TEWEN  =      3801.54298216
  -Hartree energ DENC   =     -5484.22246037
  -exchange      EXHF   =        68.51337331
  -V(xc)+E(xc)   XCENC  =       141.44236842
  PAW double counting   =      1737.87132758    -1748.19930589
  entropy T*S    EENTRO =        -0.00004868
  eigenvalues    EBANDS =      -730.94896105
  atomic energy  EATOM  =      2244.98853179
  ---------------------------------------------------
  free energy    TOTEN  =        32.21599522 eV

  energy without entropy =       32.21604389  energy(sigma->0) =       32.21601955
  exchange ACFDT corr.  =        -0.07087975  see jH, gK, PRB 81, 115126


--------------------------------------------------------------------------------------------------------




--------------------------------------- Iteration      1(   6)  ---------------------------------------


    POTLOK:  cpu time      1.5620: real time      1.5684
    SETDIJ:  cpu time      0.0025: real time      0.0025
    TRIAL :  cpu time      3.9660: real time      3.9928
    CORREC:  cpu time      0.0004: real time      0.0004
    CHARGE:  cpu time      0.1106: real time      0.1115
    --------------------------------------------
      LOOP:  cpu time      5.6417: real time      5.6758

 eigenvalue-minimisations  :     0
 total energy-change (2. order) : 0.1815529E+03  (-0.9944576E+03)
 number of electron      48.0000002 magnetization 
 augmentation part        1.6378588 magnetization 

 DIPCOR: dipole corrections for dipol
 direction  1 min pos     1, direction  2 min pos     1, direction  3 min pos     1,
 dipolmoment           7.481720      6.949906     -2.685039 electrons x Angstroem
 Tr[quadrupol]       915.962334

 energy correction for charged system         0.000000 eV
 dipol+quadrupol energy correction           -0.420273 eV
 added-field ion interaction          1.916777 eV  (added to PSCEN)


 Free energy of the ion-electron system (eV)
  ---------------------------------------------------
  alpha Z        PSCENC =         2.72467965
  Ewald energy   TEWEN  =      3801.54298216
  -Hartree energ DENC   =     -3745.43410144
  -exchange      EXHF   =        87.58963955
  -V(xc)+E(xc)   XCENC  =       120.08949766
  PAW double counting   =      3366.05660324    -3377.39682643
  entropy T*S    EENTRO =        -0.01101573
  eigenvalues    EBANDS =     -2286.39205487
  atomic energy  EATOM  =      2244.98853179
  ---------------------------------------------------
  free energy    TOTEN  =       213.76890263 eV

  energy without entropy =      213.77991836  energy(sigma->0) =      213.77441049
  exchange ACFDT corr.  =        -0.00007596  see jH, gK, PRB 81, 115126


--------------------------------------------------------------------------------------------------------




--------------------------------------- Iteration      1(   7)  ---------------------------------------


    POTLOK:  cpu time      1.5638: real time      1.5698
    SETDIJ:  cpu time      0.0025: real time      0.0025
    TRIAL :  cpu time      4.1067: real time      4.1308
    CORREC:  cpu time      0.0002: real time      0.0002
    CHARGE:  cpu time      0.0976: real time      0.0984
    --------------------------------------------
      LOOP:  cpu time      5.7711: real time      5.8020

 eigenvalue-minimisations  :     0
 total energy-change (2. order) :-0.8614237E+02  (-0.1022491E+04)
 number of electron      48.0000004 magnetization 
 augmentation part        1.8365075 magnetization 

 DIPCOR: dipole corrections for dipol
 direction  1 min pos     1, direction  2 min pos     1, direction  3 min pos     1,
 dipolmoment           7.205554      1.346576     -0.473491 electrons x Angstroem
 Tr[quadrupol]       643.899220

 energy correction for charged system         0.000000 eV
 dipol+quadrupol energy correction           -0.203430 eV
 added-field ion interaction          1.527857 eV  (added to PSCEN)


 Free energy of the ion-electron system (eV)
  ---------------------------------------------------
  alpha Z        PSCENC =         2.55260171
  Ewald energy   TEWEN  =      3801.54298216
  -Hartree energ DENC   =     -4114.83239751
  -exchange      EXHF   =        89.27929113
  -V(xc)+E(xc)   XCENC  =       123.94673651
  PAW double counting   =      3259.25244169    -3270.08818828
  entropy T*S    EENTRO =        -0.00000000
  eigenvalues    EBANDS =     -2009.00445004
  atomic energy  EATOM  =      2244.98853179
  ---------------------------------------------------
  free energy    TOTEN  =       127.62653344 eV

  energy without entropy =      127.62653344  energy(sigma->0) =      127.62653344
  exchange ACFDT corr.  =        -0.15810614  see jH, gK, PRB 81, 115126


--------------------------------------------------------------------------------------------------------




--------------------------------------- Iteration      1(   8)  ---------------------------------------


    POTLOK:  cpu time      1.5576: real time      1.5638
    SETDIJ:  cpu time      0.0023: real time      0.0023
    TRIAL :  cpu time      3.5787: real time      3.5997
    CORREC:  cpu time      0.0002: real time      0.0002
    CHARGE:  cpu time      0.0975: real time      0.0983
    --------------------------------------------
      LOOP:  cpu time      5.2365: real time      5.2645

 eigenvalue-minimisations  :     0
 total energy-change (2. order) :-0.1401765E+03  (-0.2030987E+03)
 number of electron      48.0000005 magnetization 
 augmentation part        1.9721903 magnetization 

 DIPCOR: dipole corrections for dipol
 direction  1 min pos     1, direction  2 min pos     1, direction  3 min pos     1,
 dipolmoment           0.055998     -2.507681     -0.116318 electrons x Angstroem
 Tr[quadrupol]       258.944078

 energy correction for charged system         0.000000 eV
 dipol+quadrupol energy correction           -0.023772 eV
 added-field ion interaction         -0.171880 eV  (added to PSCEN)


 Free energy of the ion-electron system (eV)
  ---------------------------------------------------
  alpha Z        PSCENC =         1.03252347
  Ewald energy   TEWEN  =      3801.54298216
  -Hartree energ DENC   =     -4985.56411850
  -exchange      EXHF   =        99.24013552
  -V(xc)+E(xc)   XCENC  =       135.01642989
  PAW double counting   =      3804.52254693    -3815.69461390
  entropy T*S    EENTRO =        -0.00000000
  eigenvalues    EBANDS =     -1297.63433760
  atomic energy  EATOM  =      2244.98853179
  ---------------------------------------------------
  free energy    TOTEN  =       -12.54992024 eV

  energy without entropy =      -12.54992024  energy(sigma->0) =      -12.54992024
  exchange ACFDT corr.  =        -0.00000000  see jH, gK, PRB 81, 115126


--------------------------------------------------------------------------------------------------------




--------------------------------------- Iteration      1(   9)  ---------------------------------------


    POTLOK:  cpu time      1.0296: real time      1.0332
    SETDIJ:  cpu time      0.0051: real time      0.0051
    TRIAL :  cpu time      3.5650: real time      3.5854
    CORREC:  cpu time      0.0002: real time      0.0002
    CHARGE:  cpu time      0.0979: real time      0.0987
    --------------------------------------------
      LOOP:  cpu time      4.6981: real time      4.7229

 eigenvalue-minimisations  :     0
 total energy-change (2. order) :-0.5483383E+02  (-0.4323194E+02)
 number of electron      48.0000005 magnetization 
 augmentation part        2.0711642 magnetization 

 DIPCOR: dipole corrections for dipol
 direction  1 min pos     1, direction  2 min pos     1, direction  3 min pos     1,
 dipolmoment          -2.443115     -2.147170     -0.386550 electrons x Angstroem
 Tr[quadrupol]       106.773381

 energy correction for charged system         0.000000 eV
 dipol+quadrupol energy correction           -0.040444 eV
 added-field ion interaction         -0.655756 eV  (added to PSCEN)


 Free energy of the ion-electron system (eV)
  ---------------------------------------------------
  alpha Z        PSCENC =         0.53197613
  Ewald energy   TEWEN  =      3801.54298216
  -Hartree energ DENC   =     -5455.96639111
  -exchange      EXHF   =       107.03972672
  -V(xc)+E(xc)   XCENC  =       142.48039157
  PAW double counting   =      4507.49862359    -4519.13231839
  entropy T*S    EENTRO =        -0.00000000
  eigenvalues    EBANDS =      -896.36727203
  atomic energy  EATOM  =      2244.98853179
  ---------------------------------------------------
  free energy    TOTEN  =       -67.38374957 eV

  energy without entropy =      -67.38374957  energy(sigma->0) =      -67.38374957
  exchange ACFDT corr.  =        -0.00000000  see jH, gK, PRB 81, 115126


--------------------------------------------------------------------------------------------------------




--------------------------------------- Iteration      1(  10)  ---------------------------------------


    POTLOK:  cpu time      0.8664: real time      0.8695
    SETDIJ:  cpu time      0.0022: real time      0.0022
    TRIAL :  cpu time      3.5751: real time      3.5952
    CORREC:  cpu time      0.0002: real time      0.0002
    CHARGE:  cpu time      0.0975: real time      0.0982
    --------------------------------------------
      LOOP:  cpu time      4.5416: real time      4.5657

 eigenvalue-minimisations  :     0
 total energy-change (2. order) :-0.2045415E+02  (-0.1717667E+02)
 number of electron      48.0000005 magnetization 
 augmentation part        2.1133428 magnetization 

 DIPCOR: dipole corrections for dipol
 direction  1 min pos     1, direction  2 min pos     1, direction  3 min pos     1,
 dipolmoment          -2.663076     -1.833474     -0.461956 electrons x Angstroem
 Tr[quadrupol]        59.457906

 energy correction for charged system         0.000000 eV
 dipol+quadrupol energy correction           -0.040212 eV
 added-field ion interaction         -0.679743 eV  (added to PSCEN)


 Free energy of the ion-electron system (eV)
  ---------------------------------------------------
  alpha Z        PSCENC =         0.50822076
  Ewald energy   TEWEN  =      3801.54298216
  -Hartree energ DENC   =     -5592.35325422
  -exchange      EXHF   =       110.35819590
  -V(xc)+E(xc)   XCENC  =       145.42956524
  PAW double counting   =      4759.22826234    -4771.18201739
  entropy T*S    EENTRO =        -0.00000000
  eigenvalues    EBANDS =      -786.35838434
  atomic energy  EATOM  =      2244.98853179
  ---------------------------------------------------
  free energy    TOTEN  =       -87.83789774 eV

  energy without entropy =      -87.83789774  energy(sigma->0) =      -87.83789774
  exchange ACFDT corr.  =        -0.00000000  see jH, gK, PRB 81, 115126


--------------------------------------------------------------------------------------------------------




--------------------------------------- Iteration      1(  11)  ---------------------------------------


    POTLOK:  cpu time      0.8601: real time      0.8627
    SETDIJ:  cpu time      0.0022: real time      0.0022
    TRIAL :  cpu time      3.5723: real time      3.5931
    CORREC:  cpu time      0.0003: real time      0.0003
    CHARGE:  cpu time      0.0974: real time      0.0982
    --------------------------------------------
      LOOP:  cpu time      4.5325: real time      4.5567

 eigenvalue-minimisations  :     0
 total energy-change (2. order) :-0.9069899E+01  (-0.7633023E+01)
 number of electron      48.0000005 magnetization 
 augmentation part        2.1272609 magnetization 

 DIPCOR: dipole corrections for dipol
 direction  1 min pos     1, direction  2 min pos     1, direction  3 min pos     1,
 dipolmoment          -2.685623     -1.608177     -0.300531 electrons x Angstroem
 Tr[quadrupol]        41.992837

 energy correction for charged system         0.000000 eV
 dipol+quadrupol energy correction           -0.037280 eV
 added-field ion interaction         -0.663209 eV  (added to PSCEN)


 Free energy of the ion-electron system (eV)
  ---------------------------------------------------
  alpha Z        PSCENC =         0.52768652
  Ewald energy   TEWEN  =      3801.54298216
  -Hartree energ DENC   =     -5635.27592856
  -exchange      EXHF   =       111.81406381
  -V(xc)+E(xc)   XCENC  =       146.80950012
  PAW double counting   =      4715.48723679    -4727.58098947
  entropy T*S    EENTRO =        -0.00000000
  eigenvalues    EBANDS =      -755.22088034
  atomic energy  EATOM  =      2244.98853179
  ---------------------------------------------------
  free energy    TOTEN  =       -96.90779718 eV

  energy without entropy =      -96.90779718  energy(sigma->0) =      -96.90779718
  exchange ACFDT corr.  =        -0.00000000  see jH, gK, PRB 81, 115126


--------------------------------------------------------------------------------------------------------




--------------------------------------- Iteration      1(  12)  ---------------------------------------


    POTLOK:  cpu time      0.8565: real time      0.8595
    SETDIJ:  cpu time      0.0025: real time      0.0025
    TRIAL :  cpu time      3.5784: real time      3.5997
    CORREC:  cpu time      0.0002: real time      0.0002
    CHARGE:  cpu time      0.0974: real time      0.0982
    --------------------------------------------
      LOOP:  cpu time      4.5354: real time      4.5604

 eigenvalue-minimisations  :     0
 total energy-change (2. order) :-0.4623346E+01  (-0.3117838E+01)
 number of electron      48.0000005 magnetization 
 augmentation part        2.1320668 magnetization 

 DIPCOR: dipole corrections for dipol
 direction  1 min pos     1, direction  2 min pos     1, direction  3 min pos     1,
 dipolmoment          -2.738024     -1.456129     -0.266952 electrons x Angstroem
 Tr[quadrupol]        33.523829

 energy correction for charged system         0.000000 eV
 dipol+quadrupol energy correction           -0.036524 eV
 added-field ion interaction         -0.661816 eV  (added to PSCEN)


 Free energy of the ion-electron system (eV)
  ---------------------------------------------------
  alpha Z        PSCENC =         0.52983553
  Ewald energy   TEWEN  =      3801.54298216
  -Hartree energ DENC   =     -5654.58822732
  -exchange      EXHF   =       112.50215864
  -V(xc)+E(xc)   XCENC  =       147.45886895
  PAW double counting   =      4620.10045218    -4632.23147558
  entropy T*S    EENTRO =        -0.00000000
  eigenvalues    EBANDS =      -741.83426989
  atomic energy  EATOM  =      2244.98853179
  ---------------------------------------------------
  free energy    TOTEN  =      -101.53114356 eV

  energy without entropy =     -101.53114356  energy(sigma->0) =     -101.53114356
  exchange ACFDT corr.  =        -0.00000000  see jH, gK, PRB 81, 115126


--------------------------------------------------------------------------------------------------------




--------------------------------------- Iteration      1(  13)  ---------------------------------------


    POTLOK:  cpu time      0.8548: real time      0.8581
    SETDIJ:  cpu time      0.0021: real time      0.0021
    TRIAL :  cpu time      3.5881: real time      3.6088
    CORREC:  cpu time      0.0001: real time      0.0001
    CHARGE:  cpu time      0.0973: real time      0.0981
    --------------------------------------------
      LOOP:  cpu time      4.5429: real time      4.5676

 eigenvalue-minimisations  :     0
 total energy-change (2. order) :-0.1970293E+01  (-0.1418444E+01)
 number of electron      48.0000005 magnetization 
 augmentation part        2.1349071 magnetization 

 DIPCOR: dipole corrections for dipol
 direction  1 min pos     1, direction  2 min pos     1, direction  3 min pos     1,
 dipolmoment          -2.732709     -1.402633     -0.245587 electrons x Angstroem
 Tr[quadrupol]        30.429716

 energy correction for charged system         0.000000 eV
 dipol+quadrupol energy correction           -0.035796 eV
 added-field ion interaction         -0.656268 eV  (added to PSCEN)


 Free energy of the ion-electron system (eV)
  ---------------------------------------------------
  alpha Z        PSCENC =         0.53611107
  Ewald energy   TEWEN  =      3801.54298216
  -Hartree energ DENC   =     -5662.12852249
  -exchange      EXHF   =       112.75524131
  -V(xc)+E(xc)   XCENC  =       147.71028547
  PAW double counting   =      4547.25119539    -4559.38636443
  entropy T*S    EENTRO =        -0.00000000
  eigenvalues    EBANDS =      -736.77089706
  atomic energy  EATOM  =      2244.98853179
  ---------------------------------------------------
  free energy    TOTEN  =      -103.50143679 eV

  energy without entropy =     -103.50143679  energy(sigma->0) =     -103.50143679
  exchange ACFDT corr.  =        -0.00000000  see jH, gK, PRB 81, 115126


--------------------------------------------------------------------------------------------------------




--------------------------------------- Iteration      1(  14)  ---------------------------------------


    POTLOK:  cpu time      0.8524: real time      0.8557
    SETDIJ:  cpu time      0.0025: real time      0.0025
    TRIAL :  cpu time      3.5875: real time      3.6093
    CORREC:  cpu time      0.0002: real time      0.0002
    CHARGE:  cpu time      0.0976: real time      0.0983
    --------------------------------------------
      LOOP:  cpu time      4.5405: real time      4.5663

 eigenvalue-minimisations  :     0
 total energy-change (2. order) :-0.9720633E+00  (-0.6509438E+00)
 number of electron      48.0000005 magnetization 
 augmentation part        2.1358855 magnetization 

 DIPCOR: dipole corrections for dipol
 direction  1 min pos     1, direction  2 min pos     1, direction  3 min pos     1,
 dipolmoment          -2.709314     -1.357633     -0.243104 electrons x Angstroem
 Tr[quadrupol]        29.012629

 energy correction for charged system         0.000000 eV
 dipol+quadrupol energy correction           -0.034844 eV
 added-field ion interaction         -0.648278 eV  (added to PSCEN)


 Free energy of the ion-electron system (eV)
  ---------------------------------------------------
  alpha Z        PSCENC =         0.54505346
  Ewald energy   TEWEN  =      3801.54298216
  -Hartree energ DENC   =     -5666.60694021
  -exchange      EXHF   =       112.87174045
  -V(xc)+E(xc)   XCENC  =       147.83223731
  PAW double counting   =      4508.65549421    -4520.78670748
  entropy T*S    EENTRO =        -0.00000000
  eigenvalues    EBANDS =      -733.51589177
  atomic energy  EATOM  =      2244.98853179
  ---------------------------------------------------
  free energy    TOTEN  =      -104.47350007 eV

  energy without entropy =     -104.47350007  energy(sigma->0) =     -104.47350007
  exchange ACFDT corr.  =        -0.00000000  see jH, gK, PRB 81, 115126


--------------------------------------------------------------------------------------------------------




--------------------------------------- Iteration      1(  15)  ---------------------------------------


    POTLOK:  cpu time      0.8519: real time      0.8550
    SETDIJ:  cpu time      0.0031: real time      0.0031
    TRIAL :  cpu time      3.5858: real time      3.6066
    CORREC:  cpu time      0.0002: real time      0.0002
    CHARGE:  cpu time      0.0974: real time      0.0982
    --------------------------------------------
      LOOP:  cpu time      4.5386: real time      4.5633

 eigenvalue-minimisations  :     0
 total energy-change (2. order) :-0.4732217E+00  (-0.3393048E+00)
 number of electron      48.0000005 magnetization 
 augmentation part        2.1353235 magnetization 

 DIPCOR: dipole corrections for dipol
 direction  1 min pos     1, direction  2 min pos     1, direction  3 min pos     1,
 dipolmoment          -2.675837     -1.315864     -0.238993 electrons x Angstroem
 Tr[quadrupol]        28.470378

 energy correction for charged system         0.000000 eV
 dipol+quadrupol energy correction           -0.033736 eV
 added-field ion interaction         -0.638447 eV  (added to PSCEN)


 Free energy of the ion-electron system (eV)
  ---------------------------------------------------
  alpha Z        PSCENC =         0.55599246
  Ewald energy   TEWEN  =      3801.54298216
  -Hartree energ DENC   =     -5667.81830277
  -exchange      EXHF   =       112.90661253
  -V(xc)+E(xc)   XCENC  =       147.86849400
  PAW double counting   =      4488.42717786    -4500.55006041
  entropy T*S    EENTRO =        -0.00000000
  eigenvalues    EBANDS =      -732.86814942
  atomic energy  EATOM  =      2244.98853179
  ---------------------------------------------------
  free energy    TOTEN  =      -104.94672179 eV

  energy without entropy =     -104.94672179  energy(sigma->0) =     -104.94672179
  exchange ACFDT corr.  =        -0.00000000  see jH, gK, PRB 81, 115126


--------------------------------------------------------------------------------------------------------




--------------------------------------- Iteration      1(  16)  ---------------------------------------


    POTLOK:  cpu time      0.8504: real time      0.8540
    SETDIJ:  cpu time      0.0029: real time      0.0029
    TRIAL :  cpu time      3.5693: real time      3.5955
    CORREC:  cpu time      0.0002: real time      0.0002
    CHARGE:  cpu time      0.0972: real time      0.0984
    --------------------------------------------
      LOOP:  cpu time      4.5306: real time      4.5635

 eigenvalue-minimisations  :     0
 total energy-change (2. order) :-0.2661451E+00  (-0.1853489E+00)
 number of electron      48.0000005 magnetization 
 augmentation part        2.1344023 magnetization 

 DIPCOR: dipole corrections for dipol
 direction  1 min pos     1, direction  2 min pos     1, direction  3 min pos     1,
 dipolmoment          -2.637860     -1.278149     -0.231616 electrons x Angstroem
 Tr[quadrupol]        28.233562

 energy correction for charged system         0.000000 eV
 dipol+quadrupol energy correction           -0.032593 eV
 added-field ion interaction         -0.627900 eV  (added to PSCEN)


 Free energy of the ion-electron system (eV)
  ---------------------------------------------------
  alpha Z        PSCENC =         0.56768265
  Ewald energy   TEWEN  =      3801.54298216
  -Hartree energ DENC   =     -5667.27175779
  -exchange      EXHF   =       112.90374837
  -V(xc)+E(xc)   XCENC  =       147.86234806
  PAW double counting   =      4477.02403544    -4489.13699885
  entropy T*S    EENTRO =        -0.00000000
  eigenvalues    EBANDS =      -733.69343876
  atomic energy  EATOM  =      2244.98853179
  ---------------------------------------------------
  free energy    TOTEN  =      -105.21286693 eV

  energy without entropy =     -105.21286693  energy(sigma->0) =     -105.21286693
  exchange ACFDT corr.  =        -0.00000000  see jH, gK, PRB 81, 115126


--------------------------------------------------------------------------------------------------------




--------------------------------------- Iteration      1(  17)  ---------------------------------------


    POTLOK:  cpu time      0.8510: real time      0.8545
    SETDIJ:  cpu time      0.0021: real time      0.0022
    TRIAL :  cpu time      3.5732: real time      3.5981
    CORREC:  cpu time      0.0002: real time      0.0002
    CHARGE:  cpu time      0.0973: real time      0.0988
    --------------------------------------------
      LOOP:  cpu time      4.5243: real time      4.5542

 eigenvalue-minimisations  :     0
 total energy-change (2. order) :-0.1503939E+00  (-0.1017122E+00)
 number of electron      48.0000005 magnetization 
 augmentation part        2.1337983 magnetization 

 DIPCOR: dipole corrections for dipol
 direction  1 min pos     1, direction  2 min pos     1, direction  3 min pos     1,
 dipolmoment          -2.597523     -1.244256     -0.226263 electrons x Angstroem
 Tr[quadrupol]        28.141458

 energy correction for charged system         0.000000 eV
 dipol+quadrupol energy correction           -0.031466 eV
 added-field ion interaction         -0.617215 eV  (added to PSCEN)


 Free energy of the ion-electron system (eV)
  ---------------------------------------------------
  alpha Z        PSCENC =         0.57949471
  Ewald energy   TEWEN  =      3801.54298216
  -Hartree energ DENC   =     -5666.33784468
  -exchange      EXHF   =       112.89083429
  -V(xc)+E(xc)   XCENC  =       147.84805451
  PAW double counting   =      4469.95620540    -4482.06115892
  entropy T*S    EENTRO =        -0.00000000
  eigenvalues    EBANDS =      -734.77036012
  atomic energy  EATOM  =      2244.98853179
  ---------------------------------------------------
  free energy    TOTEN  =      -105.36326087 eV

  energy without entropy =     -105.36326087  energy(sigma->0) =     -105.36326087
  exchange ACFDT corr.  =        -0.00000000  see jH, gK, PRB 81, 115126


--------------------------------------------------------------------------------------------------------




--------------------------------------- Iteration      1(  18)  ---------------------------------------


    POTLOK:  cpu time      0.8523: real time      0.8557
    SETDIJ:  cpu time      0.0024: real time      0.0024
    TRIAL :  cpu time      3.5794: real time      3.6047
    CORREC:  cpu time      0.0003: real time      0.0003
    CHARGE:  cpu time      0.0976: real time      0.0984
    --------------------------------------------
      LOOP:  cpu time      4.5323: real time      4.5616

 eigenvalue-minimisations  :     0
 total energy-change (2. order) :-0.8633292E-01  (-0.5893450E-01)
 number of electron      48.0000005 magnetization 
 augmentation part        2.1334284 magnetization 

 DIPCOR: dipole corrections for dipol
 direction  1 min pos     1, direction  2 min pos     1, direction  3 min pos     1,
 dipolmoment          -2.557734     -1.216448     -0.222685 electrons x Angstroem
 Tr[quadrupol]        28.082151

 energy correction for charged system         0.000000 eV
 dipol+quadrupol energy correction           -0.030429 eV
 added-field ion interaction         -0.607132 eV  (added to PSCEN)


 Free energy of the ion-electron system (eV)
  ---------------------------------------------------
  alpha Z        PSCENC =         0.59061542
  Ewald energy   TEWEN  =      3801.54298216
  -Hartree energ DENC   =     -5665.78178123
  -exchange      EXHF   =       112.88306141
  -V(xc)+E(xc)   XCENC  =       147.84293204
  PAW double counting   =      4465.80507087    -4477.90496113
  entropy T*S    EENTRO =        -0.00000000
  eigenvalues    EBANDS =      -735.41604512
  atomic energy  EATOM  =      2244.98853179
  ---------------------------------------------------
  free energy    TOTEN  =      -105.44959379 eV

  energy without entropy =     -105.44959379  energy(sigma->0) =     -105.44959379
  exchange ACFDT corr.  =        -0.00000000  see jH, gK, PRB 81, 115126


--------------------------------------------------------------------------------------------------------




--------------------------------------- Iteration      1(  19)  ---------------------------------------


    POTLOK:  cpu time      0.8525: real time      0.8560
    SETDIJ:  cpu time      0.0021: real time      0.0021
    TRIAL :  cpu time      3.5707: real time      3.5946
    CORREC:  cpu time      0.0002: real time      0.0002
    CHARGE:  cpu time      0.0980: real time      0.0989
    --------------------------------------------
      LOOP:  cpu time      4.5238: real time      4.5520

 eigenvalue-minimisations  :     0
 total energy-change (2. order) :-0.5081187E-01  (-0.3415340E-01)
 number of electron      48.0000005 magnetization 
 augmentation part        2.1330110 magnetization 

 DIPCOR: dipole corrections for dipol
 direction  1 min pos     1, direction  2 min pos     1, direction  3 min pos     1,
 dipolmoment          -2.523839     -1.195699     -0.220197 electrons x Angstroem
 Tr[quadrupol]        28.038208

 energy correction for charged system         0.000000 eV
 dipol+quadrupol energy correction           -0.029586 eV
 added-field ion interaction         -0.598769 eV  (added to PSCEN)


 Free energy of the ion-electron system (eV)
  ---------------------------------------------------
  alpha Z        PSCENC =         0.59982081
  Ewald energy   TEWEN  =      3801.54298216
  -Hartree energ DENC   =     -5665.50949537
  -exchange      EXHF   =       112.87953822
  -V(xc)+E(xc)   XCENC  =       147.84353279
  PAW double counting   =      4463.73685653    -4475.83340069
  entropy T*S    EENTRO =        -0.00000000
  eigenvalues    EBANDS =      -735.74877190
  atomic energy  EATOM  =      2244.98853179
  ---------------------------------------------------
  free energy    TOTEN  =      -105.50040566 eV

  energy without entropy =     -105.50040566  energy(sigma->0) =     -105.50040566
  exchange ACFDT corr.  =        -0.00000000  see jH, gK, PRB 81, 115126


--------------------------------------------------------------------------------------------------------




--------------------------------------- Iteration      1(  20)  ---------------------------------------


    POTLOK:  cpu time      0.8506: real time      0.8543
    SETDIJ:  cpu time      0.0021: real time      0.0021
    TRIAL :  cpu time      3.5676: real time      3.5906
    CORREC:  cpu time      0.0003: real time      0.0003
    CHARGE:  cpu time      0.0974: real time      0.0981
    --------------------------------------------
      LOOP:  cpu time      4.5185: real time      4.5459

 eigenvalue-minimisations  :     0
 total energy-change (2. order) :-0.2980293E-01  (-0.2050419E-01)
 number of electron      48.0000005 magnetization 
 augmentation part        2.1325235 magnetization 

 DIPCOR: dipole corrections for dipol
 direction  1 min pos     1, direction  2 min pos     1, direction  3 min pos     1,
 dipolmoment          -2.498151     -1.180772     -0.218207 electrons x Angstroem
 Tr[quadrupol]        28.016671

 energy correction for charged system         0.000000 eV
 dipol+quadrupol energy correction           -0.028963 eV
 added-field ion interaction         -0.592485 eV  (added to PSCEN)


 Free energy of the ion-electron system (eV)
  ---------------------------------------------------
  alpha Z        PSCENC =         0.60672732
  Ewald energy   TEWEN  =      3801.54298216
  -Hartree energ DENC   =     -5665.26767958
  -exchange      EXHF   =       112.87585527
  -V(xc)+E(xc)   XCENC  =       147.84315499
  PAW double counting   =      4462.98727541    -4475.08083111
  entropy T*S    EENTRO =        -0.00000000
  eigenvalues    EBANDS =      -736.02622486
  atomic energy  EATOM  =      2244.98853179
  ---------------------------------------------------
  free energy    TOTEN  =      -105.53020860 eV

  energy without entropy =     -105.53020860  energy(sigma->0) =     -105.53020860
  exchange ACFDT corr.  =        -0.00000000  see jH, gK, PRB 81, 115126


--------------------------------------------------------------------------------------------------------




--------------------------------------- Iteration      1(  21)  ---------------------------------------


    POTLOK:  cpu time      0.8502: real time      0.8533
    SETDIJ:  cpu time      0.0021: real time      0.0021
    TRIAL :  cpu time      3.5836: real time      3.6041
    CORREC:  cpu time      0.0002: real time      0.0002
    CHARGE:  cpu time      0.0974: real time      0.0982
    --------------------------------------------
      LOOP:  cpu time      4.5338: real time      4.5582

 eigenvalue-minimisations  :     0
 total energy-change (2. order) :-0.1815519E-01  (-0.1278965E-01)
 number of electron      48.0000005 magnetization 
 augmentation part        2.1320757 magnetization 

 DIPCOR: dipole corrections for dipol
 direction  1 min pos     1, direction  2 min pos     1, direction  3 min pos     1,
 dipolmoment          -2.480004     -1.169739     -0.216680 electrons x Angstroem
 Tr[quadrupol]        28.008818

 energy correction for charged system         0.000000 eV
 dipol+quadrupol energy correction           -0.028522 eV
 added-field ion interaction         -0.588008 eV  (added to PSCEN)


 Free energy of the ion-electron system (eV)
  ---------------------------------------------------
  alpha Z        PSCENC =         0.61164527
  Ewald energy   TEWEN  =      3801.54298216
  -Hartree energ DENC   =     -5665.02507348
  -exchange      EXHF   =       112.87179756
  -V(xc)+E(xc)   XCENC  =       147.84070573
  PAW double counting   =      4463.00148235    -4475.09224900
  entropy T*S    EENTRO =        -0.00000000
  eigenvalues    EBANDS =      -736.28818616
  atomic energy  EATOM  =      2244.98853179
  ---------------------------------------------------
  free energy    TOTEN  =      -105.54836378 eV

  energy without entropy =     -105.54836378  energy(sigma->0) =     -105.54836378
  exchange ACFDT corr.  =        -0.00000000  see jH, gK, PRB 81, 115126


--------------------------------------------------------------------------------------------------------




--------------------------------------- Iteration      1(  22)  ---------------------------------------


    POTLOK:  cpu time      0.8517: real time      0.8549
    SETDIJ:  cpu time      0.0024: real time      0.0024
    TRIAL :  cpu time      3.5748: real time      3.5950
    CORREC:  cpu time      0.0002: real time      0.0002
    CHARGE:  cpu time      0.0974: real time      0.0982
    --------------------------------------------
      LOOP:  cpu time      4.5268: real time      4.5509

 eigenvalue-minimisations  :     0
 total energy-change (2. order) :-0.1141431E-01  (-0.8102632E-02)
 number of electron      48.0000005 magnetization 
 augmentation part        2.1317318 magnetization 

 DIPCOR: dipole corrections for dipol
 direction  1 min pos     1, direction  2 min pos     1, direction  3 min pos     1,
 dipolmoment          -2.467768     -1.161536     -0.215746 electrons x Angstroem
 Tr[quadrupol]        28.004478

 energy correction for charged system         0.000000 eV
 dipol+quadrupol energy correction           -0.028220 eV
 added-field ion interaction         -0.584935 eV  (added to PSCEN)


 Free energy of the ion-electron system (eV)
  ---------------------------------------------------
  alpha Z        PSCENC =         0.61501987
  Ewald energy   TEWEN  =      3801.54298216
  -Hartree energ DENC   =     -5664.85572256
  -exchange      EXHF   =       112.86908008
  -V(xc)+E(xc)   XCENC  =       147.83893074
  PAW double counting   =      4463.37221443    -4475.46071991
  entropy T*S    EENTRO =        -0.00000000
  eigenvalues    EBANDS =      -736.47009469
  atomic energy  EATOM  =      2244.98853179
  ---------------------------------------------------
  free energy    TOTEN  =      -105.55977809 eV

  energy without entropy =     -105.55977809  energy(sigma->0) =     -105.55977809
  exchange ACFDT corr.  =        -0.00000000  see jH, gK, PRB 81, 115126


--------------------------------------------------------------------------------------------------------




--------------------------------------- Iteration      1(  23)  ---------------------------------------


    POTLOK:  cpu time      0.8513: real time      0.8543
    SETDIJ:  cpu time      0.0022: real time      0.0022
    TRIAL :  cpu time      3.5718: real time      3.5927
    CORREC:  cpu time      0.0003: real time      0.0003
    CHARGE:  cpu time      0.0975: real time      0.0982
    --------------------------------------------
      LOOP:  cpu time      4.5233: real time      4.5480

 eigenvalue-minimisations  :     0
 total energy-change (2. order) :-0.7274566E-02  (-0.5249252E-02)
 number of electron      48.0000005 magnetization 
 augmentation part        2.1314719 magnetization 

 DIPCOR: dipole corrections for dipol
 direction  1 min pos     1, direction  2 min pos     1, direction  3 min pos     1,
 dipolmoment          -2.459880     -1.155593     -0.215361 electrons x Angstroem
 Tr[quadrupol]        28.000738

 energy correction for charged system         0.000000 eV
 dipol+quadrupol energy correction           -0.028021 eV
 added-field ion interaction         -0.582914 eV  (added to PSCEN)


 Free energy of the ion-electron system (eV)
  ---------------------------------------------------
  alpha Z        PSCENC =         0.61724012
  Ewald energy   TEWEN  =      3801.54298216
  -Hartree energ DENC   =     -5664.77141399
  -exchange      EXHF   =       112.86803569
  -V(xc)+E(xc)   XCENC  =       147.83842319
  PAW double counting   =      4463.82182986    -4475.90870988
  entropy T*S    EENTRO =        -0.00000000
  eigenvalues    EBANDS =      -736.56397160
  atomic energy  EATOM  =      2244.98853179
  ---------------------------------------------------
  free energy    TOTEN  =      -105.56705266 eV

  energy without entropy =     -105.56705266  energy(sigma->0) =     -105.56705266
  exchange ACFDT corr.  =        -0.00000000  see jH, gK, PRB 81, 115126


--------------------------------------------------------------------------------------------------------




--------------------------------------- Iteration      1(  24)  ---------------------------------------


    POTLOK:  cpu time      0.8508: real time      0.8538
    SETDIJ:  cpu time      0.0023: real time      0.0023
    TRIAL :  cpu time      3.5638: real time      3.5838
    CORREC:  cpu time      0.0001: real time      0.0001
    CHARGE:  cpu time      0.0973: real time      0.0982
    --------------------------------------------
      LOOP:  cpu time      4.5147: real time      4.5385

 eigenvalue-minimisations  :     0
 total energy-change (2. order) :-0.4749428E-02  (-0.3514973E-02)
 number of electron      48.0000005 magnetization 
 augmentation part        2.1312556 magnetization 

 DIPCOR: dipole corrections for dipol
 direction  1 min pos     1, direction  2 min pos     1, direction  3 min pos     1,
 dipolmoment          -2.455023     -1.151451     -0.215213 electrons x Angstroem
 Tr[quadrupol]        27.998022

 energy correction for charged system         0.000000 eV
 dipol+quadrupol energy correction           -0.027895 eV
 added-field ion interaction         -0.581641 eV  (added to PSCEN)


 Free energy of the ion-electron system (eV)
  ---------------------------------------------------
  alpha Z        PSCENC =         0.61863957
  Ewald energy   TEWEN  =      3801.54298216
  -Hartree energ DENC   =     -5664.73214378
  -exchange      EXHF   =       112.86790170
  -V(xc)+E(xc)   XCENC  =       147.83840330
  PAW double counting   =      4464.20665731    -4476.29236784
  entropy T*S    EENTRO =        -0.00000000
  eigenvalues    EBANDS =      -736.61040630
  atomic energy  EATOM  =      2244.98853179
  ---------------------------------------------------
  free energy    TOTEN  =      -105.57180209 eV

  energy without entropy =     -105.57180209  energy(sigma->0) =     -105.57180209
  exchange ACFDT corr.  =        -0.00000000  see jH, gK, PRB 81, 115126


--------------------------------------------------------------------------------------------------------




--------------------------------------- Iteration      1(  25)  ---------------------------------------


    POTLOK:  cpu time      0.8525: real time      0.8558
    SETDIJ:  cpu time      0.0030: real time      0.0030
    TRIAL :  cpu time      3.5757: real time      3.5968
    CORREC:  cpu time      0.0002: real time      0.0002
    CHARGE:  cpu time      0.0974: real time      0.0982
    --------------------------------------------
      LOOP:  cpu time      4.5292: real time      4.5543

 eigenvalue-minimisations  :     0
 total energy-change (2. order) :-0.3197119E-02  (-0.2437730E-02)
 number of electron      48.0000005 magnetization 
 augmentation part        2.1310662 magnetization 

 DIPCOR: dipole corrections for dipol
 direction  1 min pos     1, direction  2 min pos     1, direction  3 min pos     1,
 dipolmoment          -2.452080     -1.148644     -0.215179 electrons x Angstroem
 Tr[quadrupol]        27.996277

 energy correction for charged system         0.000000 eV
 dipol+quadrupol energy correction           -0.027816 eV
 added-field ion interaction         -0.580847 eV  (added to PSCEN)


 Free energy of the ion-electron system (eV)
  ---------------------------------------------------
  alpha Z        PSCENC =         0.61951219
  Ewald energy   TEWEN  =      3801.54298216
  -Hartree energ DENC   =     -5664.71051490
  -exchange      EXHF   =       112.86814504
  -V(xc)+E(xc)   XCENC  =       147.83856349
  PAW double counting   =      4464.50280467    -4476.58757725
  entropy T*S    EENTRO =        -0.00000000
  eigenvalues    EBANDS =      -736.63744639
  atomic energy  EATOM  =      2244.98853179
  ---------------------------------------------------
  free energy    TOTEN  =      -105.57499921 eV

  energy without entropy =     -105.57499921  energy(sigma->0) =     -105.57499921
  exchange ACFDT corr.  =        -0.00000000  see jH, gK, PRB 81, 115126


--------------------------------------------------------------------------------------------------------




--------------------------------------- Iteration      1(  26)  ---------------------------------------


    POTLOK:  cpu time      0.8496: real time      0.8525
    SETDIJ:  cpu time      0.0029: real time      0.0029
    TRIAL :  cpu time      3.5722: real time      3.5925
    CORREC:  cpu time      0.0002: real time      0.0002
    CHARGE:  cpu time      0.0970: real time      0.0984
    --------------------------------------------
      LOOP:  cpu time      4.5223: real time      4.5468

 eigenvalue-minimisations  :     0
 total energy-change (2. order) :-0.2226750E-02  (-0.1726877E-02)
 number of electron      48.0000005 magnetization 
 augmentation part        2.1309149 magnetization 

 DIPCOR: dipole corrections for dipol
 direction  1 min pos     1, direction  2 min pos     1, direction  3 min pos     1,
 dipolmoment          -2.450210     -1.146820     -0.215152 electrons x Angstroem
 Tr[quadrupol]        27.995207

 energy correction for charged system         0.000000 eV
 dipol+quadrupol energy correction           -0.027765 eV
 added-field ion interaction         -0.580338 eV  (added to PSCEN)


 Free energy of the ion-electron system (eV)
  ---------------------------------------------------
  alpha Z        PSCENC =         0.62007192
  Ewald energy   TEWEN  =      3801.54298216
  -Hartree energ DENC   =     -5664.69530058
  -exchange      EXHF   =       112.86857045
  -V(xc)+E(xc)   XCENC  =       147.83856501
  PAW double counting   =      4464.75352303    -4476.83745847
  entropy T*S    EENTRO =        -0.00000000
  eigenvalues    EBANDS =      -736.65671127
  atomic energy  EATOM  =      2244.98853179
  ---------------------------------------------------
  free energy    TOTEN  =      -105.57722596 eV

  energy without entropy =     -105.57722596  energy(sigma->0) =     -105.57722596
  exchange ACFDT corr.  =        -0.00000000  see jH, gK, PRB 81, 115126


--------------------------------------------------------------------------------------------------------




--------------------------------------- Iteration      1(  27)  ---------------------------------------


    POTLOK:  cpu time      0.8498: real time      0.8526
    SETDIJ:  cpu time      0.0021: real time      0.0021
    TRIAL :  cpu time      3.5775: real time      3.5984
    CORREC:  cpu time      0.0002: real time      0.0002
    CHARGE:  cpu time      0.0976: real time      0.0984
    --------------------------------------------
      LOOP:  cpu time      4.5273: real time      4.5518

 eigenvalue-minimisations  :     0
 total energy-change (2. order) :-0.1587086E-02  (-0.1245448E-02)
 number of electron      48.0000005 magnetization 
 augmentation part        2.1307996 magnetization 

 DIPCOR: dipole corrections for dipol
 direction  1 min pos     1, direction  2 min pos     1, direction  3 min pos     1,
 dipolmoment          -2.448763     -1.145608     -0.215199 electrons x Angstroem
 Tr[quadrupol]        27.993727

 energy correction for charged system         0.000000 eV
 dipol+quadrupol energy correction           -0.027729 eV
 added-field ion interaction         -0.579967 eV  (added to PSCEN)


 Free energy of the ion-electron system (eV)
  ---------------------------------------------------
  alpha Z        PSCENC =         0.62047960
  Ewald energy   TEWEN  =      3801.54298216
  -Hartree energ DENC   =     -5664.69054468
  -exchange      EXHF   =       112.86920480
  -V(xc)+E(xc)   XCENC  =       147.83874049
  PAW double counting   =      4465.00050018    -4477.08372036
  entropy T*S    EENTRO =        -0.00000000
  eigenvalues    EBANDS =      -736.66498703
  atomic energy  EATOM  =      2244.98853179
  ---------------------------------------------------
  free energy    TOTEN  =      -105.57881304 eV

  energy without entropy =     -105.57881304  energy(sigma->0) =     -105.57881304
  exchange ACFDT corr.  =        -0.00000000  see jH, gK, PRB 81, 115126


--------------------------------------------------------------------------------------------------------




--------------------------------------- Iteration      1(  28)  ---------------------------------------


    POTLOK:  cpu time      0.8495: real time      0.8525
    SETDIJ:  cpu time      0.0022: real time      0.0022
    TRIAL :  cpu time      3.5617: real time      3.5817
    CORREC:  cpu time      0.0003: real time      0.0003
    CHARGE:  cpu time      0.0973: real time      0.0987
    --------------------------------------------
      LOOP:  cpu time      4.5112: real time      4.5356

 eigenvalue-minimisations  :     0
 total energy-change (2. order) :-0.1148780E-02  (-0.9137048E-03)
 number of electron      48.0000005 magnetization 
 augmentation part        2.1307163 magnetization 

 DIPCOR: dipole corrections for dipol
 direction  1 min pos     1, direction  2 min pos     1, direction  3 min pos     1,
 dipolmoment          -2.447579     -1.144773     -0.215168 electrons x Angstroem
 Tr[quadrupol]        27.992267

 energy correction for charged system         0.000000 eV
 dipol+quadrupol energy correction           -0.027699 eV
 added-field ion interaction         -0.579666 eV  (added to PSCEN)


 Free energy of the ion-electron system (eV)
  ---------------------------------------------------
  alpha Z        PSCENC =         0.62080973
  Ewald energy   TEWEN  =      3801.54298216
  -Hartree energ DENC   =     -5664.68983013
  -exchange      EXHF   =       112.86989720
  -V(xc)+E(xc)   XCENC  =       147.83889921
  PAW double counting   =      4465.24086342    -4477.32349855
  entropy T*S    EENTRO =        -0.00000000
  eigenvalues    EBANDS =      -736.66861667
  atomic energy  EATOM  =      2244.98853179
  ---------------------------------------------------
  free energy    TOTEN  =      -105.57996182 eV

  energy without entropy =     -105.57996182  energy(sigma->0) =     -105.57996182
  exchange ACFDT corr.  =        -0.00000000  see jH, gK, PRB 81, 115126


--------------------------------------------------------------------------------------------------------




--------------------------------------- Iteration      1(  29)  ---------------------------------------


    POTLOK:  cpu time      0.8513: real time      0.8539
    SETDIJ:  cpu time      0.0022: real time      0.0023
    TRIAL :  cpu time      3.5774: real time      3.5987
    CORREC:  cpu time      0.0002: real time      0.0002
    CHARGE:  cpu time      0.0973: real time      0.0982
    --------------------------------------------
      LOOP:  cpu time      4.5288: real time      4.5535

 eigenvalue-minimisations  :     0
 total energy-change (2. order) :-0.8469828E-03  (-0.6788595E-03)
 number of electron      48.0000005 magnetization 
 augmentation part        2.1306530 magnetization 

 DIPCOR: dipole corrections for dipol
 direction  1 min pos     1, direction  2 min pos     1, direction  3 min pos     1,
 dipolmoment          -2.446600     -1.144111     -0.215223 electrons x Angstroem
 Tr[quadrupol]        27.990890

 energy correction for charged system         0.000000 eV
 dipol+quadrupol energy correction           -0.027676 eV
 added-field ion interaction         -0.579424 eV  (added to PSCEN)


 Free energy of the ion-electron system (eV)
  ---------------------------------------------------
  alpha Z        PSCENC =         0.62107610
  Ewald energy   TEWEN  =      3801.54298216
  -Hartree energ DENC   =     -5664.69332258
  -exchange      EXHF   =       112.87064097
  -V(xc)+E(xc)   XCENC  =       147.83923098
  PAW double counting   =      4465.47355570    -4477.55572356
  entropy T*S    EENTRO =        -0.00000000
  eigenvalues    EBANDS =      -736.66778036
  atomic energy  EATOM  =      2244.98853179
  ---------------------------------------------------
  free energy    TOTEN  =      -105.58080881 eV

  energy without entropy =     -105.58080881  energy(sigma->0) =     -105.58080881
  exchange ACFDT corr.  =        -0.00000000  see jH, gK, PRB 81, 115126


--------------------------------------------------------------------------------------------------------




--------------------------------------- Iteration      1(  30)  ---------------------------------------


    POTLOK:  cpu time      0.8503: real time      0.8539
    SETDIJ:  cpu time      0.0025: real time      0.0025
    TRIAL :  cpu time      3.5515: real time      3.5761
    CORREC:  cpu time      0.0002: real time      0.0002
    CHARGE:  cpu time      0.0974: real time      0.0982
    --------------------------------------------
      LOOP:  cpu time      4.5024: real time      4.5437

 eigenvalue-minimisations  :     0
 total energy-change (2. order) :-0.6290909E-03  (-0.5120404E-03)
 number of electron      48.0000005 magnetization 
 augmentation part        2.1306047 magnetization 

 DIPCOR: dipole corrections for dipol
 direction  1 min pos     1, direction  2 min pos     1, direction  3 min pos     1,
 dipolmoment          -2.445822     -1.143584     -0.215239 electrons x Angstroem
 Tr[quadrupol]        27.990041

 energy correction for charged system         0.000000 eV
 dipol+quadrupol energy correction           -0.027656 eV
 added-field ion interaction         -0.579228 eV  (added to PSCEN)


 Free energy of the ion-electron system (eV)
  ---------------------------------------------------
  alpha Z        PSCENC =         0.62129123
  Ewald energy   TEWEN  =      3801.54298216
  -Hartree energ DENC   =     -5664.69456002
  -exchange      EXHF   =       112.87132423
  -V(xc)+E(xc)   XCENC  =       147.83947542
  PAW double counting   =      4465.69208223    -4477.77385916
  entropy T*S    EENTRO =        -0.00000000
  eigenvalues    EBANDS =      -736.66870577
  atomic energy  EATOM  =      2244.98853179
  ---------------------------------------------------
  free energy    TOTEN  =      -105.58143790 eV

  energy without entropy =     -105.58143790  energy(sigma->0) =     -105.58143790
  exchange ACFDT corr.  =        -0.00000000  see jH, gK, PRB 81, 115126


--------------------------------------------------------------------------------------------------------




--------------------------------------- Iteration      1(  31)  ---------------------------------------


    POTLOK:  cpu time      0.8483: real time      0.8523
    SETDIJ:  cpu time      0.0041: real time      0.0041
    TRIAL :  cpu time      3.5727: real time      3.5964
    CORREC:  cpu time      0.0003: real time      0.0003
    CHARGE:  cpu time      0.0972: real time      0.0983
    --------------------------------------------
      LOOP:  cpu time      4.5229: real time      4.5516

 eigenvalue-minimisations  :     0
 total energy-change (2. order) :-0.4791081E-03  (-0.3910771E-03)
 number of electron      48.0000005 magnetization 
 augmentation part        2.1305678 magnetization 

 DIPCOR: dipole corrections for dipol
 direction  1 min pos     1, direction  2 min pos     1, direction  3 min pos     1,
 dipolmoment          -2.445194     -1.143207     -0.215276 electrons x Angstroem
 Tr[quadrupol]        27.989477

 energy correction for charged system         0.000000 eV
 dipol+quadrupol energy correction           -0.027642 eV
 added-field ion interaction         -0.579082 eV  (added to PSCEN)


 Free energy of the ion-electron system (eV)
  ---------------------------------------------------
  alpha Z        PSCENC =         0.62145122
  Ewald energy   TEWEN  =      3801.54298216
  -Hartree energ DENC   =     -5664.69624938
  -exchange      EXHF   =       112.87196544
  -V(xc)+E(xc)   XCENC  =       147.83978474
  PAW double counting   =      4465.89629167    -4477.97773772
  entropy T*S    EENTRO =        -0.00000000
  eigenvalues    EBANDS =      -736.66893692
  atomic energy  EATOM  =      2244.98853179
  ---------------------------------------------------
  free energy    TOTEN  =      -105.58191700 eV

  energy without entropy =     -105.58191700  energy(sigma->0) =     -105.58191700
  exchange ACFDT corr.  =        -0.00000000  see jH, gK, PRB 81, 115126


--------------------------------------------------------------------------------------------------------




--------------------------------------- Iteration      1(  32)  ---------------------------------------


    POTLOK:  cpu time      0.8498: real time      0.8534
    SETDIJ:  cpu time      0.0031: real time      0.0031
    TRIAL :  cpu time      3.5583: real time      3.5827
    CORREC:  cpu time      0.0002: real time      0.0002
    CHARGE:  cpu time      0.0973: real time      0.0982
    --------------------------------------------
      LOOP:  cpu time      4.5089: real time      4.5379

 eigenvalue-minimisations  :     0
 total energy-change (2. order) :-0.3653317E-03  (-0.3023895E-03)
 number of electron      48.0000005 magnetization 
 augmentation part        2.1305417 magnetization 

 DIPCOR: dipole corrections for dipol
 direction  1 min pos     1, direction  2 min pos     1, direction  3 min pos     1,
 dipolmoment          -2.444715     -1.142930     -0.215270 electrons x Angstroem
 Tr[quadrupol]        27.989372

 energy correction for charged system         0.000000 eV
 dipol+quadrupol energy correction           -0.027631 eV
 added-field ion interaction         -0.578967 eV  (added to PSCEN)


 Free energy of the ion-electron system (eV)
  ---------------------------------------------------
  alpha Z        PSCENC =         0.62157692
  Ewald energy   TEWEN  =      3801.54298216
  -Hartree energ DENC   =     -5664.69531369
  -exchange      EXHF   =       112.87253022
  -V(xc)+E(xc)   XCENC  =       147.84000172
  PAW double counting   =      4466.08171071    -4478.16287418
  entropy T*S    EENTRO =        -0.00000000
  eigenvalues    EBANDS =      -736.67142799
  atomic energy  EATOM  =      2244.98853179
  ---------------------------------------------------
  free energy    TOTEN  =      -105.58228234 eV

  energy without entropy =     -105.58228234  energy(sigma->0) =     -105.58228234
  exchange ACFDT corr.  =        -0.00000000  see jH, gK, PRB 81, 115126


--------------------------------------------------------------------------------------------------------




--------------------------------------- Iteration      1(  33)  ---------------------------------------


    POTLOK:  cpu time      0.8521: real time      0.8558
    SETDIJ:  cpu time      0.0022: real time      0.0022
    TRIAL :  cpu time      3.5663: real time      3.5901
    CORREC:  cpu time      0.0002: real time      0.0002
    CHARGE:  cpu time      0.0974: real time      0.0983
    --------------------------------------------
      LOOP:  cpu time      4.5185: real time      4.5470

 eigenvalue-minimisations  :     0
 total energy-change (2. order) :-0.2850616E-03  (-0.2392735E-03)
 number of electron      48.0000005 magnetization 
 augmentation part        2.1305241 magnetization 

 DIPCOR: dipole corrections for dipol
 direction  1 min pos     1, direction  2 min pos     1, direction  3 min pos     1,
 dipolmoment          -2.444315     -1.142766     -0.215313 electrons x Angstroem
 Tr[quadrupol]        27.989336

 energy correction for charged system         0.000000 eV
 dipol+quadrupol energy correction           -0.027623 eV
 added-field ion interaction         -0.578875 eV  (added to PSCEN)


 Free energy of the ion-electron system (eV)
  ---------------------------------------------------
  alpha Z        PSCENC =         0.62167796
  Ewald energy   TEWEN  =      3801.54298216
  -Hartree energ DENC   =     -5664.69542578
  -exchange      EXHF   =       112.87304970
  -V(xc)+E(xc)   XCENC  =       147.84027646
  PAW double counting   =      4466.24887954    -4478.32980641
  entropy T*S    EENTRO =        -0.00000000
  eigenvalues    EBANDS =      -736.67273282
  atomic energy  EATOM  =      2244.98853179
  ---------------------------------------------------
  free energy    TOTEN  =      -105.58256740 eV

  energy without entropy =     -105.58256740  energy(sigma->0) =     -105.58256740
  exchange ACFDT corr.  =        -0.00000000  see jH, gK, PRB 81, 115126


--------------------------------------------------------------------------------------------------------




--------------------------------------- Iteration      1(  34)  ---------------------------------------


    POTLOK:  cpu time      0.8505: real time      0.8541
    SETDIJ:  cpu time      0.0020: real time      0.0021
    TRIAL :  cpu time      3.5657: real time      3.5903
    CORREC:  cpu time      0.0002: real time      0.0002
    CHARGE:  cpu time      0.0973: real time      0.0982
    --------------------------------------------
      LOOP:  cpu time      4.5161: real time      4.5452

 eigenvalue-minimisations  :     0
 total energy-change (2. order) :-0.2253784E-03  (-0.1946003E-03)
 number of electron      48.0000005 magnetization 
 augmentation part        2.1305151 magnetization 

 DIPCOR: dipole corrections for dipol
 direction  1 min pos     1, direction  2 min pos     1, direction  3 min pos     1,
 dipolmoment          -2.444041     -1.142667     -0.215262 electrons x Angstroem
 Tr[quadrupol]        27.989750

 energy correction for charged system         0.000000 eV
 dipol+quadrupol energy correction           -0.027617 eV
 added-field ion interaction         -0.578812 eV  (added to PSCEN)


 Free energy of the ion-electron system (eV)
  ---------------------------------------------------
  alpha Z        PSCENC =         0.62174732
  Ewald energy   TEWEN  =      3801.54298216
  -Hartree energ DENC   =     -5664.69215294
  -exchange      EXHF   =       112.87349019
  -V(xc)+E(xc)   XCENC  =       147.84043757
  PAW double counting   =      4466.39767248    -4478.47839863
  entropy T*S    EENTRO =        -0.00000000
  eigenvalues    EBANDS =      -736.67710272
  atomic energy  EATOM  =      2244.98853179
  ---------------------------------------------------
  free energy    TOTEN  =      -105.58279278 eV

  energy without entropy =     -105.58279278  energy(sigma->0) =     -105.58279278
  exchange ACFDT corr.  =        -0.00000000  see jH, gK, PRB 81, 115126


--------------------------------------------------------------------------------------------------------




--------------------------------------- Iteration      1(  35)  ---------------------------------------


    POTLOK:  cpu time      0.8507: real time      0.8542
    SETDIJ:  cpu time      0.0034: real time      0.0034
    TRIAL :  cpu time      3.5756: real time      3.5961
    CORREC:  cpu time      0.0001: real time      0.0001
    CHARGE:  cpu time      0.0975: real time      0.0983
    --------------------------------------------
      LOOP:  cpu time      4.5275: real time      4.5524

 eigenvalue-minimisations  :     0
 total energy-change (2. order) :-0.1844260E-03  (-0.1654653E-03)
 number of electron      48.0000005 magnetization 
 augmentation part        2.1305082 magnetization 

 DIPCOR: dipole corrections for dipol
 direction  1 min pos     1, direction  2 min pos     1, direction  3 min pos     1,
 dipolmoment          -2.443799     -1.142688     -0.215309 electrons x Angstroem
 Tr[quadrupol]        27.990151

 energy correction for charged system         0.000000 eV
 dipol+quadrupol energy correction           -0.027612 eV
 added-field ion interaction         -0.578761 eV  (added to PSCEN)


 Free energy of the ion-electron system (eV)
  ---------------------------------------------------
  alpha Z        PSCENC =         0.62180283
  Ewald energy   TEWEN  =      3801.54298216
  -Hartree energ DENC   =     -5664.69133408
  -exchange      EXHF   =       112.87392481
  -V(xc)+E(xc)   XCENC  =       147.84076897
  PAW double counting   =      4466.53471623    -4478.61527623
  entropy T*S    EENTRO =        -0.00000000
  eigenvalues    EBANDS =      -736.67909369
  atomic energy  EATOM  =      2244.98853179
  ---------------------------------------------------
  free energy    TOTEN  =      -105.58297720 eV

  energy without entropy =     -105.58297720  energy(sigma->0) =     -105.58297720
  exchange ACFDT corr.  =        -0.00000000  see jH, gK, PRB 81, 115126


--------------------------------------------------------------------------------------------------------




--------------------------------------- Iteration      1(  36)  ---------------------------------------


    POTLOK:  cpu time      0.8519: real time      0.8552
    SETDIJ:  cpu time      0.0030: real time      0.0031
    TRIAL :  cpu time      3.5767: real time      3.5975
    CORREC:  cpu time      0.0001: real time      0.0001
    CHARGE:  cpu time      0.0974: real time      0.0981
    --------------------------------------------
      LOOP:  cpu time      4.5294: real time      4.5542

 eigenvalue-minimisations  :     0
 total energy-change (2. order) :-0.1558109E-03  (-0.1429594E-03)
 number of electron      48.0000005 magnetization 
 augmentation part        2.1305088 magnetization 

 DIPCOR: dipole corrections for dipol
 direction  1 min pos     1, direction  2 min pos     1, direction  3 min pos     1,
 dipolmoment          -2.443642     -1.142716     -0.215210 electrons x Angstroem
 Tr[quadrupol]        27.990936

 energy correction for charged system         0.000000 eV
 dipol+quadrupol energy correction           -0.027609 eV
 added-field ion interaction         -0.578731 eV  (added to PSCEN)


 Free energy of the ion-electron system (eV)
  ---------------------------------------------------
  alpha Z        PSCENC =         0.62183562
  Ewald energy   TEWEN  =      3801.54298216
  -Hartree energ DENC   =     -5664.68524607
  -exchange      EXHF   =       112.87422931
  -V(xc)+E(xc)   XCENC  =       147.84080528
  PAW double counting   =      4466.65512389    -4478.73553273
  entropy T*S    EENTRO =        -0.00000000
  eigenvalues    EBANDS =      -736.68586225
  atomic energy  EATOM  =      2244.98853179
  ---------------------------------------------------
  free energy    TOTEN  =      -105.58313301 eV

  energy without entropy =     -105.58313301  energy(sigma->0) =     -105.58313301
  exchange ACFDT corr.  =        -0.00000000  see jH, gK, PRB 81, 115126


--------------------------------------------------------------------------------------------------------




--------------------------------------- Iteration      1(  37)  ---------------------------------------


    POTLOK:  cpu time      0.8519: real time      0.8550
    SETDIJ:  cpu time      0.0024: real time      0.0024
    TRIAL :  cpu time      3.5616: real time      3.5816
    CORREC:  cpu time      0.0002: real time      0.0002
    CHARGE:  cpu time      0.0970: real time      0.0984
    --------------------------------------------
      LOOP:  cpu time      4.5133: real time      4.5378

 eigenvalue-minimisations  :     0
 total energy-change (2. order) :-0.1364355E-03  (-0.1249946E-03)
 number of electron      48.0000005 magnetization 
 augmentation part        2.1305034 magnetization 

 DIPCOR: dipole corrections for dipol
 direction  1 min pos     1, direction  2 min pos     1, direction  3 min pos     1,
 dipolmoment          -2.443482     -1.142855     -0.215273 electrons x Angstroem
 Tr[quadrupol]        27.991383

 energy correction for charged system         0.000000 eV
 dipol+quadrupol energy correction           -0.027608 eV
 added-field ion interaction         -0.578712 eV  (added to PSCEN)


 Free energy of the ion-electron system (eV)
  ---------------------------------------------------
  alpha Z        PSCENC =         0.62185596
  Ewald energy   TEWEN  =      3801.54298216
  -Hartree energ DENC   =     -5664.68568563
  -exchange      EXHF   =       112.87461535
  -V(xc)+E(xc)   XCENC  =       147.84125186
  PAW double counting   =      4466.77051050    -4478.85079930
  entropy T*S    EENTRO =        -0.00000000
  eigenvalues    EBANDS =      -736.68653214
  atomic energy  EATOM  =      2244.98853179
  ---------------------------------------------------
  free energy    TOTEN  =      -105.58326945 eV

  energy without entropy =     -105.58326945  energy(sigma->0) =     -105.58326945
  exchange ACFDT corr.  =        -0.00000000  see jH, gK, PRB 81, 115126


--------------------------------------------------------------------------------------------------------




--------------------------------------- Iteration      1(  38)  ---------------------------------------


    POTLOK:  cpu time      0.8550: real time      0.8577
    SETDIJ:  cpu time      0.0020: real time      0.0020
    TRIAL :  cpu time      3.5841: real time      3.6050
    CORREC:  cpu time      0.0001: real time      0.0001
    CHARGE:  cpu time      0.0982: real time      0.0990
    --------------------------------------------
      LOOP:  cpu time      4.5396: real time      4.5642

 eigenvalue-minimisations  :     0
 total energy-change (2. order) :-0.1156261E-03  (-0.1099196E-03)
 number of electron      48.0000005 magnetization 
 augmentation part        2.1305039 magnetization 

 DIPCOR: dipole corrections for dipol
 direction  1 min pos     1, direction  2 min pos     1, direction  3 min pos     1,
 dipolmoment          -2.443365     -1.142933     -0.215150 electrons x Angstroem
 Tr[quadrupol]        27.992316

 energy correction for charged system         0.000000 eV
 dipol+quadrupol energy correction           -0.027606 eV
 added-field ion interaction         -0.578693 eV  (added to PSCEN)


 Free energy of the ion-electron system (eV)
  ---------------------------------------------------
  alpha Z        PSCENC =         0.62187661
  Ewald energy   TEWEN  =      3801.54298216
  -Hartree energ DENC   =     -5664.67753587
  -exchange      EXHF   =       112.87477380
  -V(xc)+E(xc)   XCENC  =       147.84112018
  PAW double counting   =      4466.86434661    -4478.94451186
  entropy T*S    EENTRO =        -0.00000000
  eigenvalues    EBANDS =      -736.69496850
  atomic energy  EATOM  =      2244.98853179
  ---------------------------------------------------
  free energy    TOTEN  =      -105.58338507 eV

  energy without entropy =     -105.58338507  energy(sigma->0) =     -105.58338507
  exchange ACFDT corr.  =        -0.00000000  see jH, gK, PRB 81, 115126


--------------------------------------------------------------------------------------------------------




--------------------------------------- Iteration      1(  39)  ---------------------------------------


    POTLOK:  cpu time      0.8503: real time      0.8534
    SETDIJ:  cpu time      0.0024: real time      0.0024
    TRIAL :  cpu time      3.5786: real time      3.5993
    CORREC:  cpu time      0.0002: real time      0.0002
    CHARGE:  cpu time      0.0976: real time      0.0984
    --------------------------------------------
      LOOP:  cpu time      4.5293: real time      4.5539

 eigenvalue-minimisations  :     0
 total energy-change (2. order) :-0.1050176E-03  (-0.1015948E-03)
 number of electron      48.0000005 magnetization 
 augmentation part        2.1304980 magnetization 

 DIPCOR: dipole corrections for dipol
 direction  1 min pos     1, direction  2 min pos     1, direction  3 min pos     1,
 dipolmoment          -2.443225     -1.143070     -0.215226 electrons x Angstroem
 Tr[quadrupol]        27.992569

 energy correction for charged system         0.000000 eV
 dipol+quadrupol energy correction           -0.027605 eV
 added-field ion interaction         -0.578675 eV  (added to PSCEN)


 Free energy of the ion-electron system (eV)
  ---------------------------------------------------
  alpha Z        PSCENC =         0.62189570
  Ewald energy   TEWEN  =      3801.54298216
  -Hartree energ DENC   =     -5664.67866969
  -exchange      EXHF   =       112.87506846
  -V(xc)+E(xc)   XCENC  =       147.84146335
  PAW double counting   =      4466.95503220    -4479.03510323
  entropy T*S    EENTRO =        -0.00000000
  eigenvalues    EBANDS =      -736.69469084
  atomic energy  EATOM  =      2244.98853179
  ---------------------------------------------------
  free energy    TOTEN  =      -105.58349009 eV

  energy without entropy =     -105.58349009  energy(sigma->0) =     -105.58349009
  exchange ACFDT corr.  =        -0.00000000  see jH, gK, PRB 81, 115126


--------------------------------------------------------------------------------------------------------




--------------------------------------- Iteration      1(  40)  ---------------------------------------


    POTLOK:  cpu time      0.8516: real time      0.8544
    SETDIJ:  cpu time      0.0023: real time      0.0023
    TRIAL :  cpu time      3.5652: real time      3.5862
    CORREC:  cpu time      0.0003: real time      0.0003
    CHARGE:  cpu time      0.0975: real time      0.0983
    --------------------------------------------
      LOOP:  cpu time      4.5173: real time      4.5419

 eigenvalue-minimisations  :     0
 total energy-change (2. order) :-0.9410604E-04  (-0.9657644E-04)
 number of electron      48.0000005 magnetization 
 augmentation part        2.1304940 magnetization 

 DIPCOR: dipole corrections for dipol
 direction  1 min pos     1, direction  2 min pos     1, direction  3 min pos     1,
 dipolmoment          -2.443116     -1.143166     -0.215124 electrons x Angstroem
 Tr[quadrupol]        27.993272

 energy correction for charged system         0.000000 eV
 dipol+quadrupol energy correction           -0.027603 eV
 added-field ion interaction         -0.578655 eV  (added to PSCEN)


 Free energy of the ion-electron system (eV)
  ---------------------------------------------------
  alpha Z        PSCENC =         0.62191746
  Ewald energy   TEWEN  =      3801.54298216
  -Hartree energ DENC   =     -5664.67278110
  -exchange      EXHF   =       112.87517788
  -V(xc)+E(xc)   XCENC  =       147.84147558
  PAW double counting   =      4467.02744683    -4479.10741651
  entropy T*S    EENTRO =        -0.00000000
  eigenvalues    EBANDS =      -736.70091830
  atomic energy  EATOM  =      2244.98853179
  ---------------------------------------------------
  free energy    TOTEN  =      -105.58358420 eV

  energy without entropy =     -105.58358420  energy(sigma->0) =     -105.58358420
  exchange ACFDT corr.  =        -0.00000000  see jH, gK, PRB 81, 115126


--------------------------------------------------------------------------------------------------------




--------------------------------------- Iteration      1(  41)  ---------------------------------------


    POTLOK:  cpu time      0.8518: real time      0.8549
    SETDIJ:  cpu time      0.0022: real time      0.0022
    TRIAL :  cpu time      3.5675: real time      3.5882
    CORREC:  cpu time      0.0002: real time      0.0002
    CHARGE:  cpu time      0.0975: real time      0.0983
    --------------------------------------------
      LOOP:  cpu time      4.5195: real time      4.5441

 eigenvalue-minimisations  :     0
 total energy-change (2. order) :-0.9183607E-04  (-0.9180835E-04)
 number of electron      48.0000005 magnetization 
 augmentation part        2.1304876 magnetization 

 DIPCOR: dipole corrections for dipol
 direction  1 min pos     1, direction  2 min pos     1, direction  3 min pos     1,
 dipolmoment          -2.442991     -1.143305     -0.215196 electrons x Angstroem
 Tr[quadrupol]        27.993619

 energy correction for charged system         0.000000 eV
 dipol+quadrupol energy correction           -0.027602 eV
 added-field ion interaction         -0.578642 eV  (added to PSCEN)


 Free energy of the ion-electron system (eV)
  ---------------------------------------------------
  alpha Z        PSCENC =         0.62193140
  Ewald energy   TEWEN  =      3801.54298216
  -Hartree energ DENC   =     -5664.67075104
  -exchange      EXHF   =       112.87534366
  -V(xc)+E(xc)   XCENC  =       147.84160859
  PAW double counting   =      4467.09457634    -4479.17445912
  entropy T*S    EENTRO =        -0.00000000
  eigenvalues    EBANDS =      -736.70343983
  atomic energy  EATOM  =      2244.98853179
  ---------------------------------------------------
  free energy    TOTEN  =      -105.58367603 eV

  energy without entropy =     -105.58367603  energy(sigma->0) =     -105.58367603
  exchange ACFDT corr.  =        -0.00000000  see jH, gK, PRB 81, 115126


--------------------------------------------------------------------------------------------------------




--------------------------------------- Iteration      1(  42)  ---------------------------------------


    POTLOK:  cpu time      0.8514: real time      0.8548
    SETDIJ:  cpu time      0.0025: real time      0.0025
    TRIAL :  cpu time      3.5705: real time      3.5908
    CORREC:  cpu time      0.0002: real time      0.0002
    CHARGE:  cpu time      0.0974: real time      0.0982
    --------------------------------------------
      LOOP:  cpu time      4.5224: real time      4.5468

 eigenvalue-minimisations  :     0
 total energy-change (2. order) :-0.8514784E-04  (-0.8688569E-04)
 number of electron      48.0000005 magnetization 
 augmentation part        2.1304816 magnetization 

 DIPCOR: dipole corrections for dipol
 direction  1 min pos     1, direction  2 min pos     1, direction  3 min pos     1,
 dipolmoment          -2.442878     -1.143402     -0.215108 electrons x Angstroem
 Tr[quadrupol]        27.994103

 energy correction for charged system         0.000000 eV
 dipol+quadrupol energy correction           -0.027601 eV
 added-field ion interaction         -0.578625 eV  (added to PSCEN)


 Free energy of the ion-electron system (eV)
  ---------------------------------------------------
  alpha Z        PSCENC =         0.62194899
  Ewald energy   TEWEN  =      3801.54298216
  -Hartree energ DENC   =     -5664.66749599
  -exchange      EXHF   =       112.87545845
  -V(xc)+E(xc)   XCENC  =       147.84163173
  PAW double counting   =      4467.15245877    -4479.23225571
  entropy T*S    EENTRO =        -0.00000000
  eigenvalues    EBANDS =      -736.70702137
  atomic energy  EATOM  =      2244.98853179
  ---------------------------------------------------
  free energy    TOTEN  =      -105.58376118 eV

  energy without entropy =     -105.58376118  energy(sigma->0) =     -105.58376118
  exchange ACFDT corr.  =        -0.00000000  see jH, gK, PRB 81, 115126


--------------------------------------------------------------------------------------------------------




--------------------------------------- Iteration      1(  43)  ---------------------------------------


    POTLOK:  cpu time      0.8513: real time      0.8546
    SETDIJ:  cpu time      0.0029: real time      0.0029
    TRIAL :  cpu time      3.5707: real time      3.5913
    CORREC:  cpu time      0.0001: real time      0.0001
    CHARGE:  cpu time      0.0975: real time      0.0984
    --------------------------------------------
      LOOP:  cpu time      4.5229: real time      4.5476

 eigenvalue-minimisations  :     0
 total energy-change (2. order) :-0.8281627E-04  (-0.8229312E-04)
 number of electron      48.0000005 magnetization 
 augmentation part        2.1304745 magnetization 

 DIPCOR: dipole corrections for dipol
 direction  1 min pos     1, direction  2 min pos     1, direction  3 min pos     1,
 dipolmoment          -2.442759     -1.143531     -0.215203 electrons x Angstroem
 Tr[quadrupol]        27.994359

 energy correction for charged system         0.000000 eV
 dipol+quadrupol energy correction           -0.027600 eV
 added-field ion interaction         -0.578613 eV  (added to PSCEN)


 Free energy of the ion-electron system (eV)
  ---------------------------------------------------
  alpha Z        PSCENC =         0.62196251
  Ewald energy   TEWEN  =      3801.54298216
  -Hartree energ DENC   =     -5664.66611582
  -exchange      EXHF   =       112.87558618
  -V(xc)+E(xc)   XCENC  =       147.84176115
  PAW double counting   =      4467.20450644    -4479.28422654
  entropy T*S    EENTRO =        -0.00000000
  eigenvalues    EBANDS =      -736.70883187
  atomic energy  EATOM  =      2244.98853179
  ---------------------------------------------------
  free energy    TOTEN  =      -105.58384400 eV

  energy without entropy =     -105.58384400  energy(sigma->0) =     -105.58384400
  exchange ACFDT corr.  =        -0.00000000  see jH, gK, PRB 81, 115126


--------------------------------------------------------------------------------------------------------




--------------------------------------- Iteration      1(  44)  ---------------------------------------


    POTLOK:  cpu time      0.8510: real time      0.8547
    SETDIJ:  cpu time      0.0021: real time      0.0021
    TRIAL :  cpu time      3.5765: real time      3.6006
    CORREC:  cpu time      0.0001: real time      0.0001
    CHARGE:  cpu time      0.0975: real time      0.0984
    --------------------------------------------
      LOOP:  cpu time      4.5276: real time      4.5694

 eigenvalue-minimisations  :     0
 total energy-change (2. order) :-0.7592760E-04  (-0.7794790E-04)
 number of electron      48.0000005 magnetization 
 augmentation part        2.1304704 magnetization 

 DIPCOR: dipole corrections for dipol
 direction  1 min pos     1, direction  2 min pos     1, direction  3 min pos     1,
 dipolmoment          -2.442666     -1.143614     -0.215102 electrons x Angstroem
 Tr[quadrupol]        27.994779

 energy correction for charged system         0.000000 eV
 dipol+quadrupol energy correction           -0.027599 eV
 added-field ion interaction         -0.578595 eV  (added to PSCEN)


 Free energy of the ion-electron system (eV)
  ---------------------------------------------------
  alpha Z        PSCENC =         0.62198248
  Ewald energy   TEWEN  =      3801.54298216
  -Hartree energ DENC   =     -5664.66263924
  -exchange      EXHF   =       112.87565814
  -V(xc)+E(xc)   XCENC  =       147.84179945
  PAW double counting   =      4467.24908362    -4479.32872848
  entropy T*S    EENTRO =        -0.00000000
  eigenvalues    EBANDS =      -736.71258986
  atomic energy  EATOM  =      2244.98853179
  ---------------------------------------------------
  free energy    TOTEN  =      -105.58391993 eV

  energy without entropy =     -105.58391993  energy(sigma->0) =     -105.58391993
  exchange ACFDT corr.  =        -0.00000000  see jH, gK, PRB 81, 115126


--------------------------------------------------------------------------------------------------------




--------------------------------------- Iteration      1(  45)  ---------------------------------------


    POTLOK:  cpu time      0.8516: real time      0.8553
    SETDIJ:  cpu time      0.0022: real time      0.0022
    TRIAL :  cpu time      3.5732: real time      3.5982
    CORREC:  cpu time      0.0001: real time      0.0001
    CHARGE:  cpu time      0.0974: real time      0.0983
    --------------------------------------------
      LOOP:  cpu time      4.5248: real time      4.5544

 eigenvalue-minimisations  :     0
 total energy-change (2. order) :-0.7268454E-04  (-0.7311051E-04)
 number of electron      48.0000005 magnetization 
 augmentation part        2.1304636 magnetization 

 DIPCOR: dipole corrections for dipol
 direction  1 min pos     1, direction  2 min pos     1, direction  3 min pos     1,
 dipolmoment          -2.442563     -1.143758     -0.215216 electrons x Angstroem
 Tr[quadrupol]        27.995098

 energy correction for charged system         0.000000 eV
 dipol+quadrupol energy correction           -0.027599 eV
 added-field ion interaction         -0.578591 eV  (added to PSCEN)


 Free energy of the ion-electron system (eV)
  ---------------------------------------------------
  alpha Z        PSCENC =         0.62198611
  Ewald energy   TEWEN  =      3801.54298216
  -Hartree energ DENC   =     -5664.66110961
  -exchange      EXHF   =       112.87577129
  -V(xc)+E(xc)   XCENC  =       147.84190500
  PAW double counting   =      4467.29134256    -4479.37092801
  entropy T*S    EENTRO =        -0.00000000
  eigenvalues    EBANDS =      -736.71447392
  atomic energy  EATOM  =      2244.98853179
  ---------------------------------------------------
  free energy    TOTEN  =      -105.58399261 eV

  energy without entropy =     -105.58399261  energy(sigma->0) =     -105.58399261
  exchange ACFDT corr.  =        -0.00000000  see jH, gK, PRB 81, 115126


--------------------------------------------------------------------------------------------------------




--------------------------------------- Iteration      1(  46)  ---------------------------------------


    POTLOK:  cpu time      0.8510: real time      0.8543
    SETDIJ:  cpu time      0.0021: real time      0.0021
    TRIAL :  cpu time      3.5745: real time      3.5983
    CORREC:  cpu time      0.0001: real time      0.0001
    CHARGE:  cpu time      0.0972: real time      0.0982
    --------------------------------------------
      LOOP:  cpu time      4.5252: real time      4.5567

 eigenvalue-minimisations  :     0
 total energy-change (2. order) :-0.6759276E-04  (-0.6741649E-04)
 number of electron      48.0000005 magnetization 
 augmentation part        2.1304586 magnetization 

 DIPCOR: dipole corrections for dipol
 direction  1 min pos     1, direction  2 min pos     1, direction  3 min pos     1,
 dipolmoment          -2.442472     -1.143849     -0.215144 electrons x Angstroem
 Tr[quadrupol]        27.995453

 energy correction for charged system         0.000000 eV
 dipol+quadrupol energy correction           -0.027597 eV
 added-field ion interaction         -0.578573 eV  (added to PSCEN)


 Free energy of the ion-electron system (eV)
  ---------------------------------------------------
  alpha Z        PSCENC =         0.62200537
  Ewald energy   TEWEN  =      3801.54298216
  -Hartree energ DENC   =     -5664.65860757
  -exchange      EXHF   =       112.87583230
  -V(xc)+E(xc)   XCENC  =       147.84188683
  PAW double counting   =      4467.32761493    -4479.40713542
  entropy T*S    EENTRO =        -0.00000000
  eigenvalues    EBANDS =      -736.71717061
  atomic energy  EATOM  =      2244.98853179
  ---------------------------------------------------
  free energy    TOTEN  =      -105.58406020 eV

  energy without entropy =     -105.58406020  energy(sigma->0) =     -105.58406020
  exchange ACFDT corr.  =        -0.00000000  see jH, gK, PRB 81, 115126


--------------------------------------------------------------------------------------------------------




--------------------------------------- Iteration      1(  47)  ---------------------------------------


    POTLOK:  cpu time      0.8500: real time      0.8539
    SETDIJ:  cpu time      0.0029: real time      0.0029
    TRIAL :  cpu time      3.5694: real time      3.5942
    CORREC:  cpu time      0.0002: real time      0.0002
    CHARGE:  cpu time      0.0974: real time      0.0983
    --------------------------------------------
      LOOP:  cpu time      4.5201: real time      4.5496

 eigenvalue-minimisations  :     0
 total energy-change (2. order) :-0.6426244E-04  (-0.6309007E-04)
 number of electron      48.0000005 magnetization 
 augmentation part        2.1304520 magnetization 

 DIPCOR: dipole corrections for dipol
 direction  1 min pos     1, direction  2 min pos     1, direction  3 min pos     1,
 dipolmoment          -2.442408     -1.143983     -0.215199 electrons x Angstroem
 Tr[quadrupol]        27.995687

 energy correction for charged system         0.000000 eV
 dipol+quadrupol energy correction           -0.027598 eV
 added-field ion interaction         -0.578575 eV  (added to PSCEN)


 Free energy of the ion-electron system (eV)
  ---------------------------------------------------
  alpha Z        PSCENC =         0.62200257
  Ewald energy   TEWEN  =      3801.54298216
  -Hartree energ DENC   =     -5664.65740714
  -exchange      EXHF   =       112.87592415
  -V(xc)+E(xc)   XCENC  =       147.84202062
  PAW double counting   =      4467.35997197    -4479.43943969
  entropy T*S    EENTRO =        -0.00000000
  eigenvalues    EBANDS =      -736.71871090
  atomic energy  EATOM  =      2244.98853179
  ---------------------------------------------------
  free energy    TOTEN  =      -105.58412447 eV

  energy without entropy =     -105.58412447  energy(sigma->0) =     -105.58412447
  exchange ACFDT corr.  =        -0.00000000  see jH, gK, PRB 81, 115126


--------------------------------------------------------------------------------------------------------




--------------------------------------- Iteration      1(  48)  ---------------------------------------


    POTLOK:  cpu time      0.8517: real time      0.8551
    SETDIJ:  cpu time      0.0024: real time      0.0024
    TRIAL :  cpu time      3.5744: real time      3.5987
    CORREC:  cpu time      0.0002: real time      0.0002
    CHARGE:  cpu time      0.0971: real time      0.0987
    --------------------------------------------
      LOOP:  cpu time      4.5261: real time      4.5554

 eigenvalue-minimisations  :     0
 total energy-change (2. order) :-0.5843802E-04  (-0.5592247E-04)
 number of electron      48.0000005 magnetization 
 augmentation part        2.1304462 magnetization 

 DIPCOR: dipole corrections for dipol
 direction  1 min pos     1, direction  2 min pos     1, direction  3 min pos     1,
 dipolmoment          -2.442331     -1.144076     -0.215175 electrons x Angstroem
 Tr[quadrupol]        27.996025

 energy correction for charged system         0.000000 eV
 dipol+quadrupol energy correction           -0.027597 eV
 added-field ion interaction         -0.578565 eV  (added to PSCEN)


 Free energy of the ion-electron system (eV)
  ---------------------------------------------------
  alpha Z        PSCENC =         0.62201421
  Ewald energy   TEWEN  =      3801.54298216
  -Hartree energ DENC   =     -5664.65497169
  -exchange      EXHF   =       112.87596889
  -V(xc)+E(xc)   XCENC  =       147.84197524
  PAW double counting   =      4467.38760767    -4479.46702226
  entropy T*S    EENTRO =        -0.00000000
  eigenvalues    EBANDS =      -736.72126891
  atomic energy  EATOM  =      2244.98853179
  ---------------------------------------------------
  free energy    TOTEN  =      -105.58418290 eV

  energy without entropy =     -105.58418290  energy(sigma->0) =     -105.58418290
  exchange ACFDT corr.  =        -0.00000000  see jH, gK, PRB 81, 115126


--------------------------------------------------------------------------------------------------------




--------------------------------------- Iteration      1(  49)  ---------------------------------------


    POTLOK:  cpu time      0.8509: real time      0.8542
    SETDIJ:  cpu time      0.0029: real time      0.0029
    TRIAL :  cpu time      3.5693: real time      3.5934
    CORREC:  cpu time      0.0002: real time      0.0002
    CHARGE:  cpu time      0.0976: real time      0.0985
    --------------------------------------------
      LOOP:  cpu time      4.5213: real time      4.5496

 eigenvalue-minimisations  :     0
 total energy-change (2. order) :-0.5287751E-04  (-0.5171450E-04)
 number of electron      48.0000005 magnetization 
 augmentation part        2.1304398 magnetization 

 DIPCOR: dipole corrections for dipol
 direction  1 min pos     1, direction  2 min pos     1, direction  3 min pos     1,
 dipolmoment          -2.442248     -1.144162     -0.215238 electrons x Angstroem
 Tr[quadrupol]        27.996045

 energy correction for charged system         0.000000 eV
 dipol+quadrupol energy correction           -0.027596 eV
 added-field ion interaction         -0.578555 eV  (added to PSCEN)


 Free energy of the ion-electron system (eV)
  ---------------------------------------------------
  alpha Z        PSCENC =         0.62202480
  Ewald energy   TEWEN  =      3801.54298216
  -Hartree energ DENC   =     -5664.65518745
  -exchange      EXHF   =       112.87605090
  -V(xc)+E(xc)   XCENC  =       147.84212471
  PAW double counting   =      4467.41225103    -4479.49161965
  entropy T*S    EENTRO =        -0.00000000
  eigenvalues    EBANDS =      -736.72139408
  atomic energy  EATOM  =      2244.98853179
  ---------------------------------------------------
  free energy    TOTEN  =      -105.58423578 eV

  energy without entropy =     -105.58423578  energy(sigma->0) =     -105.58423578
  exchange ACFDT corr.  =        -0.00000000  see jH, gK, PRB 81, 115126


--------------------------------------------------------------------------------------------------------




--------------------------------------- Iteration      1(  50)  ---------------------------------------


    POTLOK:  cpu time      0.8515: real time      0.8550
    SETDIJ:  cpu time      0.0022: real time      0.0022
    TRIAL :  cpu time      3.5776: real time      3.6020
    CORREC:  cpu time      0.0001: real time      0.0001
    CHARGE:  cpu time      0.0974: real time      0.0983
    --------------------------------------------
      LOOP:  cpu time      4.5293: real time      4.5581

 eigenvalue-minimisations  :     0
 total energy-change (2. order) :-0.4473606E-04  (-0.4504928E-04)
 number of electron      48.0000005 magnetization 
 augmentation part        2.1304360 magnetization 

 DIPCOR: dipole corrections for dipol
 direction  1 min pos     1, direction  2 min pos     1, direction  3 min pos     1,
 dipolmoment          -2.442205     -1.144247     -0.215172 electrons x Angstroem
 Tr[quadrupol]        27.996504

 energy correction for charged system         0.000000 eV
 dipol+quadrupol energy correction           -0.027596 eV
 added-field ion interaction         -0.578552 eV  (added to PSCEN)


 Free energy of the ion-electron system (eV)
  ---------------------------------------------------
  alpha Z        PSCENC =         0.62202698
  Ewald energy   TEWEN  =      3801.54298216
  -Hartree energ DENC   =     -5664.65173015
  -exchange      EXHF   =       112.87606198
  -V(xc)+E(xc)   XCENC  =       147.84200730
  PAW double counting   =      4467.43065859    -4479.50998363
  entropy T*S    EENTRO =        -0.00000000
  eigenvalues    EBANDS =      -736.72483553
  atomic energy  EATOM  =      2244.98853179
  ---------------------------------------------------
  free energy    TOTEN  =      -105.58428052 eV

  energy without entropy =     -105.58428052  energy(sigma->0) =     -105.58428052
  exchange ACFDT corr.  =        -0.00000000  see jH, gK, PRB 81, 115126


--------------------------------------------------------------------------------------------------------




--------------------------------------- Iteration      1(  51)  ---------------------------------------


    POTLOK:  cpu time      0.8514: real time      0.8551
    SETDIJ:  cpu time      0.0020: real time      0.0020
    TRIAL :  cpu time      3.5715: real time      3.5956
    CORREC:  cpu time      0.0002: real time      0.0002
    CHARGE:  cpu time      0.0975: real time      0.0985
    --------------------------------------------
      LOOP:  cpu time      4.5230: real time      4.5518

 eigenvalue-minimisations  :     0
 total energy-change (2. order) :-0.4154885E-04  (-0.4125104E-04)
 number of electron      48.0000005 magnetization 
 augmentation part        2.1304283 magnetization 

 DIPCOR: dipole corrections for dipol
 direction  1 min pos     1, direction  2 min pos     1, direction  3 min pos     1,
 dipolmoment          -2.442119     -1.144312     -0.215291 electrons x Angstroem
 Tr[quadrupol]        27.996286

 energy correction for charged system         0.000000 eV
 dipol+quadrupol energy correction           -0.027595 eV
 added-field ion interaction         -0.578540 eV  (added to PSCEN)


 Free energy of the ion-electron system (eV)
  ---------------------------------------------------
  alpha Z        PSCENC =         0.62204087
  Ewald energy   TEWEN  =      3801.54298216
  -Hartree energ DENC   =     -5664.65415556
  -exchange      EXHF   =       112.87616812
  -V(xc)+E(xc)   XCENC  =       147.84223971
  PAW double counting   =      4467.45061918    -4479.52991280
  entropy T*S    EENTRO =        -0.00000000
  eigenvalues    EBANDS =      -736.72283553
  atomic energy  EATOM  =      2244.98853179
  ---------------------------------------------------
  free energy    TOTEN  =      -105.58432207 eV

  energy without entropy =     -105.58432207  energy(sigma->0) =     -105.58432207
  exchange ACFDT corr.  =        -0.00000000  see jH, gK, PRB 81, 115126


--------------------------------------------------------------------------------------------------------




--------------------------------------- Iteration      1(  52)  ---------------------------------------


    POTLOK:  cpu time      0.8518: real time      0.8553
    SETDIJ:  cpu time      0.0024: real time      0.0024
    TRIAL :  cpu time      3.5791: real time      3.6038
    CORREC:  cpu time      0.0002: real time      0.0002
    CHARGE:  cpu time      0.0972: real time      0.0982
    --------------------------------------------
      LOOP:  cpu time      4.5310: real time      4.5603

 eigenvalue-minimisations  :     0
 total energy-change (2. order) :-0.3533836E-04  (-0.3593251E-04)
 number of electron      48.0000005 magnetization 
 augmentation part        2.1304255 magnetization 

 DIPCOR: dipole corrections for dipol
 direction  1 min pos     1, direction  2 min pos     1, direction  3 min pos     1,
 dipolmoment          -2.442096     -1.144374     -0.215189 electrons x Angstroem
 Tr[quadrupol]        27.996871

 energy correction for charged system         0.000000 eV
 dipol+quadrupol energy correction           -0.027595 eV
 added-field ion interaction         -0.578539 eV  (added to PSCEN)


 Free energy of the ion-electron system (eV)
  ---------------------------------------------------
  alpha Z        PSCENC =         0.62204187
  Ewald energy   TEWEN  =      3801.54298216
  -Hartree energ DENC   =     -5664.64901091
  -exchange      EXHF   =       112.87613369
  -V(xc)+E(xc)   XCENC  =       147.84209309
  PAW double counting   =      4467.46165297    -4479.54090567
  entropy T*S    EENTRO =        -0.00000000
  eigenvalues    EBANDS =      -736.72787640
  atomic energy  EATOM  =      2244.98853179
  ---------------------------------------------------
  free energy    TOTEN  =      -105.58435740 eV

  energy without entropy =     -105.58435740  energy(sigma->0) =     -105.58435740
  exchange ACFDT corr.  =        -0.00000000  see jH, gK, PRB 81, 115126


--------------------------------------------------------------------------------------------------------




--------------------------------------- Iteration      1(  53)  ---------------------------------------


    POTLOK:  cpu time      0.8472: real time      0.8509
    SETDIJ:  cpu time      0.0069: real time      0.0069
    TRIAL :  cpu time      3.5774: real time      3.6015
    CORREC:  cpu time      0.0001: real time      0.0001
    CHARGE:  cpu time      0.0976: real time      0.0988
    --------------------------------------------
      LOOP:  cpu time      4.5294: real time      4.5584

 eigenvalue-minimisations  :     0
 total energy-change (2. order) :-0.3162137E-04  (-0.3230766E-04)
 number of electron      48.0000005 magnetization 
 augmentation part        2.1304198 magnetization 

 DIPCOR: dipole corrections for dipol
 direction  1 min pos     1, direction  2 min pos     1, direction  3 min pos     1,
 dipolmoment          -2.442018     -1.144443     -0.215302 electrons x Angstroem
 Tr[quadrupol]        27.996642

 energy correction for charged system         0.000000 eV
 dipol+quadrupol energy correction           -0.027594 eV
 added-field ion interaction         -0.578531 eV  (added to PSCEN)


 Free energy of the ion-electron system (eV)
  ---------------------------------------------------
  alpha Z        PSCENC =         0.62205026
  Ewald energy   TEWEN  =      3801.54298216
  -Hartree energ DENC   =     -5664.65172089
  -exchange      EXHF   =       112.87623362
  -V(xc)+E(xc)   XCENC  =       147.84226410
  PAW double counting   =      4467.47765658    -4479.55688630
  entropy T*S    EENTRO =        -0.00000000
  eigenvalues    EBANDS =      -736.72550035
  atomic energy  EATOM  =      2244.98853179
  ---------------------------------------------------
  free energy    TOTEN  =      -105.58438903 eV

  energy without entropy =     -105.58438903  energy(sigma->0) =     -105.58438903
  exchange ACFDT corr.  =        -0.00000000  see jH, gK, PRB 81, 115126


--------------------------------------------------------------------------------------------------------




--------------------------------------- Iteration      1(  54)  ---------------------------------------


    POTLOK:  cpu time      0.8595: real time      0.8632
    SETDIJ:  cpu time      0.0034: real time      0.0034
    TRIAL :  cpu time      3.5712: real time      3.5958
    CORREC:  cpu time      0.0001: real time      0.0001
    CHARGE:  cpu time      0.0975: real time      0.0983
    --------------------------------------------
      LOOP:  cpu time      4.5320: real time      4.5611

 eigenvalue-minimisations  :     0
 total energy-change (2. order) :-0.2877574E-04  (-0.2764261E-04)
 number of electron      48.0000005 magnetization 
 augmentation part        2.1304160 magnetization 

 DIPCOR: dipole corrections for dipol
 direction  1 min pos     1, direction  2 min pos     1, direction  3 min pos     1,
 dipolmoment          -2.441997     -1.144485     -0.215221 electrons x Angstroem
 Tr[quadrupol]        27.997040

 energy correction for charged system         0.000000 eV
 dipol+quadrupol energy correction           -0.027594 eV
 added-field ion interaction         -0.578530 eV  (added to PSCEN)


 Free energy of the ion-electron system (eV)
  ---------------------------------------------------
  alpha Z        PSCENC =         0.62205145
  Ewald energy   TEWEN  =      3801.54298216
  -Hartree energ DENC   =     -5664.64825229
  -exchange      EXHF   =       112.87622399
  -V(xc)+E(xc)   XCENC  =       147.84217607
  PAW double counting   =      4467.48709644    -4479.56629608
  entropy T*S    EENTRO =        -0.00000000
  eigenvalues    EBANDS =      -736.72893133
  atomic energy  EATOM  =      2244.98853179
  ---------------------------------------------------
  free energy    TOTEN  =      -105.58441780 eV

  energy without entropy =     -105.58441780  energy(sigma->0) =     -105.58441780
  exchange ACFDT corr.  =        -0.00000000  see jH, gK, PRB 81, 115126


--------------------------------------------------------------------------------------------------------




--------------------------------------- Iteration      1(  55)  ---------------------------------------


    POTLOK:  cpu time      0.8520: real time      0.8554
    SETDIJ:  cpu time      0.0030: real time      0.0030
    TRIAL :  cpu time      3.5788: real time      3.6027
    CORREC:  cpu time      0.0002: real time      0.0002
    CHARGE:  cpu time      0.0974: real time      0.0982
    --------------------------------------------
      LOOP:  cpu time      4.5316: real time      4.5598

 eigenvalue-minimisations  :     0
 total energy-change (2. order) :-0.2540045E-04  (-0.2409302E-04)
 number of electron      48.0000005 magnetization 
 augmentation part        2.1304106 magnetization 

 DIPCOR: dipole corrections for dipol
 direction  1 min pos     1, direction  2 min pos     1, direction  3 min pos     1,
 dipolmoment          -2.441936     -1.144549     -0.215298 electrons x Angstroem
 Tr[quadrupol]        27.996970

 energy correction for charged system         0.000000 eV
 dipol+quadrupol energy correction           -0.027594 eV
 added-field ion interaction         -0.578524 eV  (added to PSCEN)


 Free energy of the ion-electron system (eV)
  ---------------------------------------------------
  alpha Z        PSCENC =         0.62205727
  Ewald energy   TEWEN  =      3801.54298216
  -Hartree energ DENC   =     -5664.64968477
  -exchange      EXHF   =       112.87628787
  -V(xc)+E(xc)   XCENC  =       147.84230866
  PAW double counting   =      4467.49866177    -4479.57783950
  entropy T*S    EENTRO =        -0.00000000
  eigenvalues    EBANDS =      -736.72774847
  atomic energy  EATOM  =      2244.98853179
  ---------------------------------------------------
  free energy    TOTEN  =      -105.58444320 eV

  energy without entropy =     -105.58444320  energy(sigma->0) =     -105.58444320
  exchange ACFDT corr.  =        -0.00000000  see jH, gK, PRB 81, 115126


--------------------------------------------------------------------------------------------------------




--------------------------------------- Iteration      1(  56)  ---------------------------------------


    POTLOK:  cpu time      0.8508: real time      0.8546
    SETDIJ:  cpu time      0.0031: real time      0.0031
    TRIAL :  cpu time      3.5714: real time      3.5958
    CORREC:  cpu time      0.0002: real time      0.0002
    CHARGE:  cpu time      0.0974: real time      0.0983
    --------------------------------------------
      LOOP:  cpu time      4.5231: real time      4.5523

 eigenvalue-minimisations  :     0
 total energy-change (2. order) :-0.2109166E-04  (-0.2196060E-04)
 number of electron      48.0000005 magnetization 
 augmentation part        2.1304076 magnetization 

 DIPCOR: dipole corrections for dipol
 direction  1 min pos     1, direction  2 min pos     1, direction  3 min pos     1,
 dipolmoment          -2.441918     -1.144552     -0.215234 electrons x Angstroem
 Tr[quadrupol]        27.997224

 energy correction for charged system         0.000000 eV
 dipol+quadrupol energy correction           -0.027594 eV
 added-field ion interaction         -0.578520 eV  (added to PSCEN)


 Free energy of the ion-electron system (eV)
  ---------------------------------------------------
  alpha Z        PSCENC =         0.62206200
  Ewald energy   TEWEN  =      3801.54298216
  -Hartree energ DENC   =     -5664.64668363
  -exchange      EXHF   =       112.87627820
  -V(xc)+E(xc)   XCENC  =       147.84222523
  PAW double counting   =      4467.50598311    -4479.58513596
  entropy T*S    EENTRO =        -0.00000000
  eigenvalues    EBANDS =      -736.73070720
  atomic energy  EATOM  =      2244.98853179
  ---------------------------------------------------
  free energy    TOTEN  =      -105.58446429 eV

  energy without entropy =     -105.58446429  energy(sigma->0) =     -105.58446429
  exchange ACFDT corr.  =        -0.00000000  see jH, gK, PRB 81, 115126


--------------------------------------------------------------------------------------------------------




--------------------------------------- Iteration      1(  57)  ---------------------------------------


    POTLOK:  cpu time      0.8514: real time      0.8551
    SETDIJ:  cpu time      0.0021: real time      0.0021
    TRIAL :  cpu time      3.5697: real time      3.5941
    CORREC:  cpu time      0.0002: real time      0.0002
    CHARGE:  cpu time      0.0973: real time      0.0988
    --------------------------------------------
      LOOP:  cpu time      4.5209: real time      4.5505

 eigenvalue-minimisations  :     0
 total energy-change (2. order) :-0.1910550E-04  (-0.2020209E-04)
 number of electron      48.0000005 magnetization 
 augmentation part        2.1304041 magnetization 

 DIPCOR: dipole corrections for dipol
 direction  1 min pos     1, direction  2 min pos     1, direction  3 min pos     1,
 dipolmoment          -2.441859     -1.144613     -0.215331 electrons x Angstroem
 Tr[quadrupol]        27.997153

 energy correction for charged system         0.000000 eV
 dipol+quadrupol energy correction           -0.027593 eV
 added-field ion interaction         -0.578515 eV  (added to PSCEN)


 Free energy of the ion-electron system (eV)
  ---------------------------------------------------
  alpha Z        PSCENC =         0.62206702
  Ewald energy   TEWEN  =      3801.54298216
  -Hartree energ DENC   =     -5664.64842024
  -exchange      EXHF   =       112.87633932
  -V(xc)+E(xc)   XCENC  =       147.84234870
  PAW double counting   =      4467.51562577    -4479.59476275
  entropy T*S    EENTRO =        -0.00000000
  eigenvalues    EBANDS =      -736.72919517
  atomic energy  EATOM  =      2244.98853179
  ---------------------------------------------------
  free energy    TOTEN  =      -105.58448340 eV

  energy without entropy =     -105.58448340  energy(sigma->0) =     -105.58448340
  exchange ACFDT corr.  =        -0.00000000  see jH, gK, PRB 81, 115126


--------------------------------------------------------------------------------------------------------




--------------------------------------- Iteration      1(  58)  ---------------------------------------


    POTLOK:  cpu time      0.8516: real time      0.8550
    SETDIJ:  cpu time      0.0025: real time      0.0025
    TRIAL :  cpu time      3.5848: real time      3.6087
    CORREC:  cpu time      0.0001: real time      0.0001
    CHARGE:  cpu time      0.0975: real time      0.0983
    --------------------------------------------
      LOOP:  cpu time      4.5475: real time      4.5778

 eigenvalue-minimisations  :     0
 total energy-change (2. order) :-0.1583908E-04  (-0.1777866E-04)
 number of electron      48.0000005 magnetization 
 augmentation part        2.1303999 magnetization 

 DIPCOR: dipole corrections for dipol
 direction  1 min pos     1, direction  2 min pos     1, direction  3 min pos     1,
 dipolmoment          -2.441850     -1.144591     -0.215220 electrons x Angstroem
 Tr[quadrupol]        27.997298

 energy correction for charged system         0.000000 eV
 dipol+quadrupol energy correction           -0.027593 eV
 added-field ion interaction         -0.578508 eV  (added to PSCEN)


 Free energy of the ion-electron system (eV)
  ---------------------------------------------------
  alpha Z        PSCENC =         0.62207522
  Ewald energy   TEWEN  =      3801.54298216
  -Hartree energ DENC   =     -5664.64667249
  -exchange      EXHF   =       112.87634821
  -V(xc)+E(xc)   XCENC  =       147.84228409
  PAW double counting   =      4467.52237316    -4479.60149336
  entropy T*S    EENTRO =        -0.00000000
  eigenvalues    EBANDS =      -736.73092803
  atomic energy  EATOM  =      2244.98853179
  ---------------------------------------------------
  free energy    TOTEN  =      -105.58449924 eV

  energy without entropy =     -105.58449924  energy(sigma->0) =     -105.58449924
  exchange ACFDT corr.  =        -0.00000000  see jH, gK, PRB 81, 115126


--------------------------------------------------------------------------------------------------------




--------------------------------------- Iteration      1(  59)  ---------------------------------------


    POTLOK:  cpu time      0.8515: real time      0.8551
    SETDIJ:  cpu time      0.0024: real time      0.0024
    TRIAL :  cpu time      3.5846: real time      3.6090
    CORREC:  cpu time      0.0001: real time      0.0001
    CHARGE:  cpu time      0.0974: real time      0.0984
    --------------------------------------------
      LOOP:  cpu time      4.5363: real time      4.5653

 eigenvalue-minimisations  :     0
 total energy-change (2. order) :-0.1525013E-04  (-0.1584127E-04)
 number of electron      48.0000005 magnetization 
 augmentation part        2.1303965 magnetization 

 DIPCOR: dipole corrections for dipol
 direction  1 min pos     1, direction  2 min pos     1, direction  3 min pos     1,
 dipolmoment          -2.441790     -1.144635     -0.215337 electrons x Angstroem
 Tr[quadrupol]        27.997322

 energy correction for charged system         0.000000 eV
 dipol+quadrupol energy correction           -0.027592 eV
 added-field ion interaction         -0.578500 eV  (added to PSCEN)


 Free energy of the ion-electron system (eV)
  ---------------------------------------------------
  alpha Z        PSCENC =         0.62208361
  Ewald energy   TEWEN  =      3801.54298216
  -Hartree energ DENC   =     -5664.64681016
  -exchange      EXHF   =       112.87637609
  -V(xc)+E(xc)   XCENC  =       147.84241321
  PAW double counting   =      4467.52998329    -4479.60908523
  entropy T*S    EENTRO =        -0.00000000
  eigenvalues    EBANDS =      -736.73098926
  atomic energy  EATOM  =      2244.98853179
  ---------------------------------------------------
  free energy    TOTEN  =      -105.58451449 eV

  energy without entropy =     -105.58451449  energy(sigma->0) =     -105.58451449
  exchange ACFDT corr.  =        -0.00000000  see jH, gK, PRB 81, 115126


--------------------------------------------------------------------------------------------------------




--------------------------------------- Iteration      1(  60)  ---------------------------------------


    POTLOK:  cpu time      0.8484: real time      0.8522
    SETDIJ:  cpu time      0.0062: real time      0.0062
    TRIAL :  cpu time      3.5772: real time      3.6007
    CORREC:  cpu time      0.0001: real time      0.0001
    CHARGE:  cpu time      0.0978: real time      0.0987
    --------------------------------------------
      LOOP:  cpu time      4.5300: real time      4.5582

 eigenvalue-minimisations  :     0
 total energy-change (2. order) :-0.1150246E-04  (-0.1466461E-04)
 number of electron      48.0000005 magnetization 
 augmentation part        2.1303941 magnetization 

 DIPCOR: dipole corrections for dipol
 direction  1 min pos     1, direction  2 min pos     1, direction  3 min pos     1,
 dipolmoment          -2.441786     -1.144614     -0.215240 electrons x Angstroem
 Tr[quadrupol]        27.997484

 energy correction for charged system         0.000000 eV
 dipol+quadrupol energy correction           -0.027591 eV
 added-field ion interaction         -0.578494 eV  (added to PSCEN)


 Free energy of the ion-electron system (eV)
  ---------------------------------------------------
  alpha Z        PSCENC =         0.62208997
  Ewald energy   TEWEN  =      3801.54298216
  -Hartree energ DENC   =     -5664.64502917
  -exchange      EXHF   =       112.87637715
  -V(xc)+E(xc)   XCENC  =       147.84227502
  PAW double counting   =      4467.53524650    -4479.61433302
  entropy T*S    EENTRO =        -0.00000000
  eigenvalues    EBANDS =      -736.73266639
  atomic energy  EATOM  =      2244.98853179
  ---------------------------------------------------
  free energy    TOTEN  =      -105.58452599 eV

  energy without entropy =     -105.58452599  energy(sigma->0) =     -105.58452599
  exchange ACFDT corr.  =        -0.00000000  see jH, gK, PRB 81, 115126


--------------------------------------------------------------------------------------------------------




--------------------------------------- Iteration      1(  61)  ---------------------------------------


    POTLOK:  cpu time      0.8513: real time      0.8550
    SETDIJ:  cpu time      0.0032: real time      0.0032
    TRIAL :  cpu time      3.5745: real time      3.5996
    CORREC:  cpu time      0.0001: real time      0.0001
    CHARGE:  cpu time      0.0979: real time      0.0988
    --------------------------------------------
      LOOP:  cpu time      4.5273: real time      4.5571

 eigenvalue-minimisations  :     0
 total energy-change (2. order) :-0.1240325E-04  (-0.1480546E-04)
 number of electron      48.0000005 magnetization 
 augmentation part        2.1303902 magnetization 

 DIPCOR: dipole corrections for dipol
 direction  1 min pos     1, direction  2 min pos     1, direction  3 min pos     1,
 dipolmoment          -2.441722     -1.144641     -0.215319 electrons x Angstroem
 Tr[quadrupol]        27.997325

 energy correction for charged system         0.000000 eV
 dipol+quadrupol energy correction           -0.027591 eV
 added-field ion interaction         -0.578489 eV  (added to PSCEN)


 Free energy of the ion-electron system (eV)
  ---------------------------------------------------
  alpha Z        PSCENC =         0.62209580
  Ewald energy   TEWEN  =      3801.54298216
  -Hartree energ DENC   =     -5664.64710385
  -exchange      EXHF   =       112.87643712
  -V(xc)+E(xc)   XCENC  =       147.84244966
  PAW double counting   =      4467.54389541    -4479.62297109
  entropy T*S    EENTRO =        -0.00000000
  eigenvalues    EBANDS =      -736.73085538
  atomic energy  EATOM  =      2244.98853179
  ---------------------------------------------------
  free energy    TOTEN  =      -105.58453839 eV

  energy without entropy =     -105.58453839  energy(sigma->0) =     -105.58453839
  exchange ACFDT corr.  =        -0.00000000  see jH, gK, PRB 81, 115126


--------------------------------------------------------------------------------------------------------




--------------------------------------- Iteration      1(  62)  ---------------------------------------


    POTLOK:  cpu time      0.8503: real time      0.8539
    SETDIJ:  cpu time      0.0031: real time      0.0031
    TRIAL :  cpu time      3.5782: real time      3.6012
    CORREC:  cpu time      0.0001: real time      0.0001
    CHARGE:  cpu time      0.0976: real time      0.0983
    --------------------------------------------
      LOOP:  cpu time      4.5299: real time      4.5571

 eigenvalue-minimisations  :     0
 total energy-change (2. order) :-0.8921700E-05  (-0.1491440E-04)
 number of electron      48.0000005 magnetization 
 augmentation part        2.1303872 magnetization 

 DIPCOR: dipole corrections for dipol
 direction  1 min pos     1, direction  2 min pos     1, direction  3 min pos     1,
 dipolmoment          -2.441729     -1.144617     -0.215240 electrons x Angstroem
 Tr[quadrupol]        27.997525

 energy correction for charged system         0.000000 eV
 dipol+quadrupol energy correction           -0.027590 eV
 added-field ion interaction         -0.578482 eV  (added to PSCEN)


 Free energy of the ion-electron system (eV)
  ---------------------------------------------------
  alpha Z        PSCENC =         0.62210345
  Ewald energy   TEWEN  =      3801.54298216
  -Hartree energ DENC   =     -5664.64451940
  -exchange      EXHF   =       112.87642082
  -V(xc)+E(xc)   XCENC  =       147.84234205
  PAW double counting   =      4467.54804880    -4479.62710812
  entropy T*S    EENTRO =        -0.00000000
  eigenvalues    EBANDS =      -736.73334887
  atomic energy  EATOM  =      2244.98853179
  ---------------------------------------------------
  free energy    TOTEN  =      -105.58454732 eV

  energy without entropy =     -105.58454732  energy(sigma->0) =     -105.58454732
  exchange ACFDT corr.  =        -0.00000000  see jH, gK, PRB 81, 115126


--------------------------------------------------------------------------------------------------------




--------------------------------------- Iteration      1(  63)  ---------------------------------------


    POTLOK:  cpu time      0.8509: real time      0.8540
    SETDIJ:  cpu time      0.0033: real time      0.0033
    TRIAL :  cpu time      3.5641: real time      3.5849
    CORREC:  cpu time      0.0001: real time      0.0001
    CHARGE:  cpu time      0.0975: real time      0.0983
    --------------------------------------------
      LOOP:  cpu time      4.5162: real time      4.5410

 eigenvalue-minimisations  :     0
 total energy-change (2. order) :-0.1090803E-04  (-0.1384400E-04)
 number of electron      48.0000005 magnetization 
 augmentation part        2.1303842 magnetization 

 DIPCOR: dipole corrections for dipol
 direction  1 min pos     1, direction  2 min pos     1, direction  3 min pos     1,
 dipolmoment          -2.441650     -1.144653     -0.215332 electrons x Angstroem
 Tr[quadrupol]        27.997466

 energy correction for charged system         0.000000 eV
 dipol+quadrupol energy correction           -0.027590 eV
 added-field ion interaction         -0.578477 eV  (added to PSCEN)


 Free energy of the ion-electron system (eV)
  ---------------------------------------------------
  alpha Z        PSCENC =         0.62210894
  Ewald energy   TEWEN  =      3801.54298216
  -Hartree energ DENC   =     -5664.64600409
  -exchange      EXHF   =       112.87646501
  -V(xc)+E(xc)   XCENC  =       147.84244460
  PAW double counting   =      4467.55570157    -4479.63474855
  entropy T*S    EENTRO =        -0.00000000
  eigenvalues    EBANDS =      -736.73203965
  atomic energy  EATOM  =      2244.98853179
  ---------------------------------------------------
  free energy    TOTEN  =      -105.58455822 eV

  energy without entropy =     -105.58455822  energy(sigma->0) =     -105.58455822
  exchange ACFDT corr.  =        -0.00000000  see jH, gK, PRB 81, 115126


--------------------------------------------------------------------------------------------------------




--------------------------------------- Iteration      1(  64)  ---------------------------------------


    POTLOK:  cpu time      0.8521: real time      0.8552
    SETDIJ:  cpu time      0.0025: real time      0.0025
    TRIAL :  cpu time      3.5574: real time      3.5976
    CORREC:  cpu time      0.0001: real time      0.0001
    CHARGE:  cpu time      0.1038: real time      0.1052
    --------------------------------------------
      LOOP:  cpu time      4.5163: real time      4.5610

 eigenvalue-minimisations  :     0
 total energy-change (2. order) :-0.8920564E-05  (-0.1176139E-04)
 number of electron      48.0000005 magnetization 
 augmentation part        2.1303799 magnetization 

 DIPCOR: dipole corrections for dipol
 direction  1 min pos     1, direction  2 min pos     1, direction  3 min pos     1,
 dipolmoment          -2.441670     -1.144619     -0.215229 electrons x Angstroem
 Tr[quadrupol]        27.997511

 energy correction for charged system         0.000000 eV
 dipol+quadrupol energy correction           -0.027590 eV
 added-field ion interaction         -0.578474 eV  (added to PSCEN)


 Free energy of the ion-electron system (eV)
  ---------------------------------------------------
  alpha Z        PSCENC =         0.62211234
  Ewald energy   TEWEN  =      3801.54298216
  -Hartree energ DENC   =     -5664.64486619
  -exchange      EXHF   =       112.87647596
  -V(xc)+E(xc)   XCENC  =       147.84243034
  PAW double counting   =      4467.56085614    -4479.63988969
  entropy T*S    EENTRO =        -0.00000000
  eigenvalues    EBANDS =      -736.73320001
  atomic energy  EATOM  =      2244.98853179
  ---------------------------------------------------
  free energy    TOTEN  =      -105.58456714 eV

  energy without entropy =     -105.58456714  energy(sigma->0) =     -105.58456714
  exchange ACFDT corr.  =        -0.00000000  see jH, gK, PRB 81, 115126


--------------------------------------------------------------------------------------------------------




--------------------------------------- Iteration      1(  65)  ---------------------------------------


    POTLOK:  cpu time      0.8525: real time      0.8551
    SETDIJ:  cpu time      0.0025: real time      0.0025
    TRIAL :  cpu time      3.5747: real time      3.5955
    CORREC:  cpu time      0.0001: real time      0.0001
    CHARGE:  cpu time      0.0976: real time      0.0983
    --------------------------------------------
      LOOP:  cpu time      4.5276: real time      4.5518

 eigenvalue-minimisations  :     0
 total energy-change (2. order) :-0.8309277E-05  (-0.9860666E-05)
 number of electron      48.0000005 magnetization 
 augmentation part        2.1303779 magnetization 

 DIPCOR: dipole corrections for dipol
 direction  1 min pos     1, direction  2 min pos     1, direction  3 min pos     1,
 dipolmoment          -2.441605     -1.144653     -0.215328 electrons x Angstroem
 Tr[quadrupol]        27.997564

 energy correction for charged system         0.000000 eV
 dipol+quadrupol energy correction           -0.027589 eV
 added-field ion interaction         -0.578466 eV  (added to PSCEN)


 Free energy of the ion-electron system (eV)
  ---------------------------------------------------
  alpha Z        PSCENC =         0.62212062
  Ewald energy   TEWEN  =      3801.54298216
  -Hartree energ DENC   =     -5664.64418388
  -exchange      EXHF   =       112.87647346
  -V(xc)+E(xc)   XCENC  =       147.84241980
  PAW double counting   =      4467.56579217    -4479.64481005
  entropy T*S    EENTRO =        -0.00000000
  eigenvalues    EBANDS =      -736.73390155
  atomic energy  EATOM  =      2244.98853179
  ---------------------------------------------------
  free energy    TOTEN  =      -105.58457545 eV

  energy without entropy =     -105.58457545  energy(sigma->0) =     -105.58457545
  exchange ACFDT corr.  =        -0.00000000  see jH, gK, PRB 81, 115126


--------------------------------------------------------------------------------------------------------




--------------------------------------- Iteration      1(  66)  ---------------------------------------


    POTLOK:  cpu time      0.8512: real time      0.8543
    SETDIJ:  cpu time      0.0023: real time      0.0023
    TRIAL :  cpu time      3.5600: real time      3.5806
    CORREC:  cpu time      0.0001: real time      0.0001
    CHARGE:  cpu time      0.0976: real time      0.0983
    --------------------------------------------
      LOOP:  cpu time      4.5115: real time      4.5359

 eigenvalue-minimisations  :     0
 total energy-change (2. order) :-0.8371959E-05  (-0.9088161E-05)
 number of electron      48.0000005 magnetization 
 augmentation part        2.1303744 magnetization 

 DIPCOR: dipole corrections for dipol
 direction  1 min pos     1, direction  2 min pos     1, direction  3 min pos     1,
 dipolmoment          -2.441608     -1.144627     -0.215238 electrons x Angstroem
 Tr[quadrupol]        27.997549

 energy correction for charged system         0.000000 eV
 dipol+quadrupol energy correction           -0.027589 eV
 added-field ion interaction         -0.578463 eV  (added to PSCEN)


 Free energy of the ion-electron system (eV)
  ---------------------------------------------------
  alpha Z        PSCENC =         0.62212343
  Ewald energy   TEWEN  =      3801.54298216
  -Hartree energ DENC   =     -5664.64461974
  -exchange      EXHF   =       112.87651044
  -V(xc)+E(xc)   XCENC  =       147.84244352
  PAW double counting   =      4467.57174283    -4479.65075090
  entropy T*S    EENTRO =        -0.00000000
  eigenvalues    EBANDS =      -736.73354735
  atomic energy  EATOM  =      2244.98853179
  ---------------------------------------------------
  free energy    TOTEN  =      -105.58458383 eV

  energy without entropy =     -105.58458383  energy(sigma->0) =     -105.58458383
  exchange ACFDT corr.  =        -0.00000000  see jH, gK, PRB 81, 115126


--------------------------------------------------------------------------------------------------------




--------------------------------------- Iteration      1(  67)  ---------------------------------------


    POTLOK:  cpu time      0.8644: real time      0.8672
    SETDIJ:  cpu time      0.0041: real time      0.0041
    TRIAL :  cpu time      3.5884: real time      3.6086
    CORREC:  cpu time      0.0001: real time      0.0001
    CHARGE:  cpu time      0.0974: real time      0.0981
    --------------------------------------------
      LOOP:  cpu time      4.5547: real time      4.5784

 eigenvalue-minimisations  :     0
 total energy-change (2. order) :-0.7126861E-05  (-0.8751468E-05)
 number of electron      48.0000005 magnetization 
 augmentation part        2.1303715 magnetization 

 DIPCOR: dipole corrections for dipol
 direction  1 min pos     1, direction  2 min pos     1, direction  3 min pos     1,
 dipolmoment          -2.441549     -1.144652     -0.215319 electrons x Angstroem
 Tr[quadrupol]        27.997583

 energy correction for charged system         0.000000 eV
 dipol+quadrupol energy correction           -0.027588 eV
 added-field ion interaction         -0.578456 eV  (added to PSCEN)


 Free energy of the ion-electron system (eV)
  ---------------------------------------------------
  alpha Z        PSCENC =         0.62213182
  Ewald energy   TEWEN  =      3801.54298216
  -Hartree energ DENC   =     -5664.64446642
  -exchange      EXHF   =       112.87652099
  -V(xc)+E(xc)   XCENC  =       147.84250172
  PAW double counting   =      4467.57654373    -4479.65553835
  entropy T*S    EENTRO =        -0.00000000
  eigenvalues    EBANDS =      -736.73379839
  atomic energy  EATOM  =      2244.98853179
  ---------------------------------------------------
  free energy    TOTEN  =      -105.58459095 eV

  energy without entropy =     -105.58459095  energy(sigma->0) =     -105.58459095
  exchange ACFDT corr.  =        -0.00000000  see jH, gK, PRB 81, 115126


--------------------------------------------------------------------------------------------------------




--------------------------------------- Iteration      1(  68)  ---------------------------------------


    POTLOK:  cpu time      0.8527: real time      0.8558
    SETDIJ:  cpu time      0.0022: real time      0.0022
    TRIAL :  cpu time      3.5923: real time      3.6131
    CORREC:  cpu time      0.0001: real time      0.0001
    CHARGE:  cpu time      0.0977: real time      0.0985
    --------------------------------------------
      LOOP:  cpu time      4.5455: real time      4.5701

 eigenvalue-minimisations  :     0
 total energy-change (2. order) :-0.6049035E-05  (-0.8766303E-05)
 number of electron      48.0000005 magnetization 
 augmentation part        2.1303685 magnetization 

 DIPCOR: dipole corrections for dipol
 direction  1 min pos     1, direction  2 min pos     1, direction  3 min pos     1,
 dipolmoment          -2.441570     -1.144637     -0.215235 electrons x Angstroem
 Tr[quadrupol]        27.997668

 energy correction for charged system         0.000000 eV
 dipol+quadrupol energy correction           -0.027588 eV
 added-field ion interaction         -0.578452 eV  (added to PSCEN)


 Free energy of the ion-electron system (eV)
  ---------------------------------------------------
  alpha Z        PSCENC =         0.62213576
  Ewald energy   TEWEN  =      3801.54298216
  -Hartree energ DENC   =     -5664.64328383
  -exchange      EXHF   =       112.87652086
  -V(xc)+E(xc)   XCENC  =       147.84244711
  PAW double counting   =      4467.58018794    -4479.65917100
  entropy T*S    EENTRO =        -0.00000000
  eigenvalues    EBANDS =      -736.73494779
  atomic energy  EATOM  =      2244.98853179
  ---------------------------------------------------
  free energy    TOTEN  =      -105.58459700 eV

  energy without entropy =     -105.58459700  energy(sigma->0) =     -105.58459700
  exchange ACFDT corr.  =        -0.00000000  see jH, gK, PRB 81, 115126


--------------------------------------------------------------------------------------------------------




--------------------------------------- Iteration      1(  69)  ---------------------------------------


    POTLOK:  cpu time      0.8528: real time      0.8560
    SETDIJ:  cpu time      0.0021: real time      0.0021
    TRIAL :  cpu time      3.5829: real time      3.6033
    CORREC:  cpu time      0.0001: real time      0.0001
    CHARGE:  cpu time      0.0976: real time      0.0983
    --------------------------------------------
      LOOP:  cpu time      4.5357: real time      4.5601

 eigenvalue-minimisations  :     0
 total energy-change (2. order) :-0.6995285E-05  (-0.8155733E-05)
 number of electron      48.0000005 magnetization 
 augmentation part        2.1303660 magnetization 

 DIPCOR: dipole corrections for dipol
 direction  1 min pos     1, direction  2 min pos     1, direction  3 min pos     1,
 dipolmoment          -2.441501     -1.144658     -0.215319 electrons x Angstroem
 Tr[quadrupol]        27.997637

 energy correction for charged system         0.000000 eV
 dipol+quadrupol energy correction           -0.027587 eV
 added-field ion interaction         -0.578443 eV  (added to PSCEN)


 Free energy of the ion-electron system (eV)
  ---------------------------------------------------
  alpha Z        PSCENC =         0.62214593
  Ewald energy   TEWEN  =      3801.54298216
  -Hartree energ DENC   =     -5664.64389719
  -exchange      EXHF   =       112.87654610
  -V(xc)+E(xc)   XCENC  =       147.84251629
  PAW double counting   =      4467.58497313    -4479.66394508
  entropy T*S    EENTRO =        -0.00000000
  eigenvalues    EBANDS =      -736.73445713
  atomic energy  EATOM  =      2244.98853179
  ---------------------------------------------------
  free energy    TOTEN  =      -105.58460400 eV

  energy without entropy =     -105.58460400  energy(sigma->0) =     -105.58460400
  exchange ACFDT corr.  =        -0.00000000  see jH, gK, PRB 81, 115126


--------------------------------------------------------------------------------------------------------




--------------------------------------- Iteration      1(  70)  ---------------------------------------


    POTLOK:  cpu time      0.8539: real time      0.8570
    SETDIJ:  cpu time      0.0021: real time      0.0021
    TRIAL :  cpu time      3.5851: real time      3.6056
    CORREC:  cpu time      0.0001: real time      0.0001
    CHARGE:  cpu time      0.0976: real time      0.0983
    --------------------------------------------
      LOOP:  cpu time      4.5390: real time      4.5633

 eigenvalue-minimisations  :     0
 total energy-change (2. order) :-0.7118584E-05  (-0.7703997E-05)
 number of electron      48.0000005 magnetization 
 augmentation part        2.1303633 magnetization 

 DIPCOR: dipole corrections for dipol
 direction  1 min pos     1, direction  2 min pos     1, direction  3 min pos     1,
 dipolmoment          -2.441518     -1.144637     -0.215242 electrons x Angstroem
 Tr[quadrupol]        27.997685

 energy correction for charged system         0.000000 eV
 dipol+quadrupol energy correction           -0.027587 eV
 added-field ion interaction         -0.578447 eV  (added to PSCEN)


 Free energy of the ion-electron system (eV)
  ---------------------------------------------------
  alpha Z        PSCENC =         0.62214171
  Ewald energy   TEWEN  =      3801.54298216
  -Hartree energ DENC   =     -5664.64325439
  -exchange      EXHF   =       112.87655388
  -V(xc)+E(xc)   XCENC  =       147.84245393
  PAW double counting   =      4467.58827225    -4479.66723384
  entropy T*S    EENTRO =        -0.00000000
  eigenvalues    EBANDS =      -736.73505862
  atomic energy  EATOM  =      2244.98853179
  ---------------------------------------------------
  free energy    TOTEN  =      -105.58461112 eV

  energy without entropy =     -105.58461112  energy(sigma->0) =     -105.58461112
  exchange ACFDT corr.  =        -0.00000000  see jH, gK, PRB 81, 115126


--------------------------------------------------------------------------------------------------------




--------------------------------------- Iteration      1(  71)  ---------------------------------------


    POTLOK:  cpu time      0.8530: real time      0.8563
    SETDIJ:  cpu time      0.0024: real time      0.0024
    TRIAL :  cpu time      3.5754: real time      3.5953
    CORREC:  cpu time      0.0001: real time      0.0001
    CHARGE:  cpu time      0.0973: real time      0.0982
    --------------------------------------------
      LOOP:  cpu time      4.5285: real time      4.5525

 eigenvalue-minimisations  :     0
 total energy-change (2. order) :-0.5403500E-05  (-0.7333242E-05)
 number of electron      48.0000005 magnetization 
 augmentation part        2.1303599 magnetization 

 DIPCOR: dipole corrections for dipol
 direction  1 min pos     1, direction  2 min pos     1, direction  3 min pos     1,
 dipolmoment          -2.441452     -1.144660     -0.215310 electrons x Angstroem
 Tr[quadrupol]        27.997607

 energy correction for charged system         0.000000 eV
 dipol+quadrupol energy correction           -0.027586 eV
 added-field ion interaction         -0.578435 eV  (added to PSCEN)


 Free energy of the ion-electron system (eV)
  ---------------------------------------------------
  alpha Z        PSCENC =         0.62215459
  Ewald energy   TEWEN  =      3801.54298216
  -Hartree energ DENC   =     -5664.64394437
  -exchange      EXHF   =       112.87657565
  -V(xc)+E(xc)   XCENC  =       147.84257022
  PAW double counting   =      4467.59195718    -4479.67090944
  entropy T*S    EENTRO =        -0.00000000
  eigenvalues    EBANDS =      -736.73453430
  atomic energy  EATOM  =      2244.98853179
  ---------------------------------------------------
  free energy    TOTEN  =      -105.58461652 eV

  energy without entropy =     -105.58461652  energy(sigma->0) =     -105.58461652
  exchange ACFDT corr.  =        -0.00000000  see jH, gK, PRB 81, 115126


--------------------------------------------------------------------------------------------------------




--------------------------------------- Iteration      1(  72)  ---------------------------------------


    POTLOK:  cpu time      0.8520: real time      0.8553
    SETDIJ:  cpu time      0.0025: real time      0.0025
    TRIAL :  cpu time      3.5703: real time      3.5911
    CORREC:  cpu time      0.0001: real time      0.0001
    CHARGE:  cpu time      0.0978: real time      0.0986
    --------------------------------------------
      LOOP:  cpu time      4.5343: real time      4.5610

 eigenvalue-minimisations  :     0
 total energy-change (2. order) :-0.4516139E-05  (-0.6799654E-05)
 number of electron      48.0000005 magnetization 
 augmentation part        2.1303579 magnetization 

 DIPCOR: dipole corrections for dipol
 direction  1 min pos     1, direction  2 min pos     1, direction  3 min pos     1,
 dipolmoment          -2.441467     -1.144637     -0.215251 electrons x Angstroem
 Tr[quadrupol]        27.997805

 energy correction for charged system         0.000000 eV
 dipol+quadrupol energy correction           -0.027586 eV
 added-field ion interaction         -0.578433 eV  (added to PSCEN)


 Free energy of the ion-electron system (eV)
  ---------------------------------------------------
  alpha Z        PSCENC =         0.62215660
  Ewald energy   TEWEN  =      3801.54298216
  -Hartree energ DENC   =     -5664.64197253
  -exchange      EXHF   =       112.87655940
  -V(xc)+E(xc)   XCENC  =       147.84242269
  PAW double counting   =      4467.59371960    -4479.67266019
  entropy T*S    EENTRO =        -0.00000000
  eigenvalues    EBANDS =      -736.73636056
  atomic energy  EATOM  =      2244.98853179
  ---------------------------------------------------
  free energy    TOTEN  =      -105.58462104 eV

  energy without entropy =     -105.58462104  energy(sigma->0) =     -105.58462104
  exchange ACFDT corr.  =        -0.00000000  see jH, gK, PRB 81, 115126


--------------------------------------------------------------------------------------------------------




--------------------------------------- Iteration      1(  73)  ---------------------------------------


    POTLOK:  cpu time      0.8517: real time      0.8548
    SETDIJ:  cpu time      0.0022: real time      0.0022
    TRIAL :  cpu time      3.5761: real time      3.5961
    CORREC:  cpu time      0.0001: real time      0.0001
    CHARGE:  cpu time      0.0971: real time      0.0984
    --------------------------------------------
      LOOP:  cpu time      4.5275: real time      4.5519

 eigenvalue-minimisations  :     0
 total energy-change (2. order) :-0.4871976E-05  (-0.6568869E-05)
 number of electron      48.0000005 magnetization 
 augmentation part        2.1303545 magnetization 

 DIPCOR: dipole corrections for dipol
 direction  1 min pos     1, direction  2 min pos     1, direction  3 min pos     1,
 dipolmoment          -2.441419     -1.144653     -0.215308 electrons x Angstroem
 Tr[quadrupol]        27.997593

 energy correction for charged system         0.000000 eV
 dipol+quadrupol energy correction           -0.027585 eV
 added-field ion interaction         -0.578428 eV  (added to PSCEN)


 Free energy of the ion-electron system (eV)
  ---------------------------------------------------
  alpha Z        PSCENC =         0.62216267
  Ewald energy   TEWEN  =      3801.54298216
  -Hartree energ DENC   =     -5664.64414366
  -exchange      EXHF   =       112.87661129
  -V(xc)+E(xc)   XCENC  =       147.84265339
  PAW double counting   =      4467.59807377    -4479.67700652
  entropy T*S    EENTRO =        -0.00000000
  eigenvalues    EBANDS =      -736.73449080
  atomic energy  EATOM  =      2244.98853179
  ---------------------------------------------------
  free energy    TOTEN  =      -105.58462591 eV

  energy without entropy =     -105.58462591  energy(sigma->0) =     -105.58462591
  exchange ACFDT corr.  =        -0.00000000  see jH, gK, PRB 81, 115126


--------------------------------------------------------------------------------------------------------




--------------------------------------- Iteration      1(  74)  ---------------------------------------


    POTLOK:  cpu time      0.8526: real time      0.8554
    SETDIJ:  cpu time      0.0022: real time      0.0022
    TRIAL :  cpu time      3.5679: real time      3.5888
    CORREC:  cpu time      0.0001: real time      0.0001
    CHARGE:  cpu time      0.0976: real time      0.0984
    --------------------------------------------
      LOOP:  cpu time      4.5209: real time      4.5453

 eigenvalue-minimisations  :     0
 total energy-change (2. order) :-0.5231475E-05  (-0.6424969E-05)
 number of electron      48.0000005 magnetization 
 augmentation part        2.1303532 magnetization 

 DIPCOR: dipole corrections for dipol
 direction  1 min pos     1, direction  2 min pos     1, direction  3 min pos     1,
 dipolmoment          -2.441411     -1.144640     -0.215256 electrons x Angstroem
 Tr[quadrupol]        27.997864

 energy correction for charged system         0.000000 eV
 dipol+quadrupol energy correction           -0.027585 eV
 added-field ion interaction         -0.578426 eV  (added to PSCEN)


 Free energy of the ion-electron system (eV)
  ---------------------------------------------------
  alpha Z        PSCENC =         0.62216467
  Ewald energy   TEWEN  =      3801.54298216
  -Hartree energ DENC   =     -5664.64120935
  -exchange      EXHF   =       112.87657355
  -V(xc)+E(xc)   XCENC  =       147.84240357
  PAW double counting   =      4467.59843574    -4479.67735747
  entropy T*S    EENTRO =        -0.00000000
  eigenvalues    EBANDS =      -736.73715579
  atomic energy  EATOM  =      2244.98853179
  ---------------------------------------------------
  free energy    TOTEN  =      -105.58463114 eV

  energy without entropy =     -105.58463114  energy(sigma->0) =     -105.58463114
  exchange ACFDT corr.  =        -0.00000000  see jH, gK, PRB 81, 115126


--------------------------------------------------------------------------------------------------------




--------------------------------------- Iteration      1(  75)  ---------------------------------------


    POTLOK:  cpu time      0.8520: real time      0.8551
    SETDIJ:  cpu time      0.0023: real time      0.0023
    TRIAL :  cpu time      3.5801: real time      3.6012
    CORREC:  cpu time      0.0001: real time      0.0001
    CHARGE:  cpu time      0.0974: real time      0.0982
    --------------------------------------------
      LOOP:  cpu time      4.5321: real time      4.5571

 eigenvalue-minimisations  :     0
 total energy-change (2. order) :-0.4586401E-05  (-0.6340958E-05)
 number of electron      48.0000005 magnetization 
 augmentation part        2.1303499 magnetization 

 DIPCOR: dipole corrections for dipol
 direction  1 min pos     1, direction  2 min pos     1, direction  3 min pos     1,
 dipolmoment          -2.441378     -1.144648     -0.215298 electrons x Angstroem
 Tr[quadrupol]        27.997626

 energy correction for charged system         0.000000 eV
 dipol+quadrupol energy correction           -0.027584 eV
 added-field ion interaction         -0.578417 eV  (added to PSCEN)


 Free energy of the ion-electron system (eV)
  ---------------------------------------------------
  alpha Z        PSCENC =         0.62217420
  Ewald energy   TEWEN  =      3801.54298216
  -Hartree energ DENC   =     -5664.64376272
  -exchange      EXHF   =       112.87663508
  -V(xc)+E(xc)   XCENC  =       147.84265028
  PAW double counting   =      4467.60277227    -4479.68168846
  entropy T*S    EENTRO =        -0.00000000
  eigenvalues    EBANDS =      -736.73493032
  atomic energy  EATOM  =      2244.98853179
  ---------------------------------------------------
  free energy    TOTEN  =      -105.58463573 eV

  energy without entropy =     -105.58463573  energy(sigma->0) =     -105.58463573
  exchange ACFDT corr.  =        -0.00000000  see jH, gK, PRB 81, 115126


--------------------------------------------------------------------------------------------------------




--------------------------------------- Iteration      1(  76)  ---------------------------------------


    POTLOK:  cpu time      0.8516: real time      0.8546
    SETDIJ:  cpu time      0.0032: real time      0.0032
    TRIAL :  cpu time      3.5594: real time      3.5800
    CORREC:  cpu time      0.0001: real time      0.0001
    CHARGE:  cpu time      0.0975: real time      0.0982
    --------------------------------------------
      LOOP:  cpu time      4.5120: real time      4.5363

 eigenvalue-minimisations  :     0
 total energy-change (2. order) :-0.3705429E-05  (-0.6343649E-05)
 number of electron      48.0000005 magnetization 
 augmentation part        2.1303481 magnetization 

 DIPCOR: dipole corrections for dipol
 direction  1 min pos     1, direction  2 min pos     1, direction  3 min pos     1,
 dipolmoment          -2.441377     -1.144641     -0.215259 electrons x Angstroem
 Tr[quadrupol]        27.997881

 energy correction for charged system         0.000000 eV
 dipol+quadrupol energy correction           -0.027584 eV
 added-field ion interaction         -0.578413 eV  (added to PSCEN)


 Free energy of the ion-electron system (eV)
  ---------------------------------------------------
  alpha Z        PSCENC =         0.62217894
  Ewald energy   TEWEN  =      3801.54298216
  -Hartree energ DENC   =     -5664.64115760
  -exchange      EXHF   =       112.87660446
  -V(xc)+E(xc)   XCENC  =       147.84245307
  PAW double counting   =      4467.60306884    -4479.68197491
  entropy T*S    EENTRO =        -0.00000000
  eigenvalues    EBANDS =      -736.73732617
  atomic energy  EATOM  =      2244.98853179
  ---------------------------------------------------
  free energy    TOTEN  =      -105.58463943 eV

  energy without entropy =     -105.58463943  energy(sigma->0) =     -105.58463943
  exchange ACFDT corr.  =        -0.00000000  see jH, gK, PRB 81, 115126


--------------------------------------------------------------------------------------------------------




--------------------------------------- Iteration      1(  77)  ---------------------------------------


    POTLOK:  cpu time      0.8518: real time      0.8549
    SETDIJ:  cpu time      0.0025: real time      0.0025
    TRIAL :  cpu time      3.5667: real time      3.5881
    CORREC:  cpu time      0.0001: real time      0.0001
    CHARGE:  cpu time      0.0975: real time      0.0983
    --------------------------------------------
      LOOP:  cpu time      4.5191: real time      4.5442

 eigenvalue-minimisations  :     0
 total energy-change (2. order) :-0.4616495E-05  (-0.6120822E-05)
 number of electron      48.0000005 magnetization 
 augmentation part        2.1303458 magnetization 

 DIPCOR: dipole corrections for dipol
 direction  1 min pos     1, direction  2 min pos     1, direction  3 min pos     1,
 dipolmoment          -2.441335     -1.144646     -0.215306 electrons x Angstroem
 Tr[quadrupol]        27.997690

 energy correction for charged system         0.000000 eV
 dipol+quadrupol energy correction           -0.027584 eV
 added-field ion interaction         -0.578411 eV  (added to PSCEN)


 Free energy of the ion-electron system (eV)
  ---------------------------------------------------
  alpha Z        PSCENC =         0.62218131
  Ewald energy   TEWEN  =      3801.54298216
  -Hartree energ DENC   =     -5664.64300439
  -exchange      EXHF   =       112.87664924
  -V(xc)+E(xc)   XCENC  =       147.84263604
  PAW double counting   =      4467.60637405    -4479.68527407
  entropy T*S    EENTRO =        -0.00000000
  eigenvalues    EBANDS =      -736.73572019
  atomic energy  EATOM  =      2244.98853179
  ---------------------------------------------------
  free energy    TOTEN  =      -105.58464405 eV

  energy without entropy =     -105.58464405  energy(sigma->0) =     -105.58464405
  exchange ACFDT corr.  =        -0.00000000  see jH, gK, PRB 81, 115126


--------------------------------------------------------------------------------------------------------




--------------------------------------- Iteration      1(  78)  ---------------------------------------


    POTLOK:  cpu time      0.8617: real time      0.8650
    SETDIJ:  cpu time      0.0036: real time      0.0036
    TRIAL :  cpu time      3.5703: real time      3.5900
    CORREC:  cpu time      0.0001: real time      0.0001
    CHARGE:  cpu time      0.0974: real time      0.0982
    --------------------------------------------
      LOOP:  cpu time      4.5333: real time      4.5572

 eigenvalue-minimisations  :     0
 total energy-change (2. order) :-0.3248603E-05  (-0.5932669E-05)
 number of electron      48.0000005 magnetization 
 augmentation part        2.1303438 magnetization 

 DIPCOR: dipole corrections for dipol
 direction  1 min pos     1, direction  2 min pos     1, direction  3 min pos     1,
 dipolmoment          -2.441343     -1.144631     -0.215253 electrons x Angstroem
 Tr[quadrupol]        27.997853

 energy correction for charged system         0.000000 eV
 dipol+quadrupol energy correction           -0.027583 eV
 added-field ion interaction         -0.578405 eV  (added to PSCEN)


 Free energy of the ion-electron system (eV)
  ---------------------------------------------------
  alpha Z        PSCENC =         0.62218748
  Ewald energy   TEWEN  =      3801.54298216
  -Hartree energ DENC   =     -5664.64126797
  -exchange      EXHF   =       112.87663631
  -V(xc)+E(xc)   XCENC  =       147.84253980
  PAW double counting   =      4467.60727082    -4479.68616318
  entropy T*S    EENTRO =        -0.00000000
  eigenvalues    EBANDS =      -736.73736452
  atomic energy  EATOM  =      2244.98853179
  ---------------------------------------------------
  free energy    TOTEN  =      -105.58464730 eV

  energy without entropy =     -105.58464730  energy(sigma->0) =     -105.58464730
  exchange ACFDT corr.  =        -0.00000000  see jH, gK, PRB 81, 115126


--------------------------------------------------------------------------------------------------------




--------------------------------------- Iteration      1(  79)  ---------------------------------------


    POTLOK:  cpu time      0.8521: real time      0.8552
    SETDIJ:  cpu time      0.0021: real time      0.0021
    TRIAL :  cpu time      3.5781: real time      3.5990
    CORREC:  cpu time      0.0001: real time      0.0001
    CHARGE:  cpu time      0.0976: real time      0.0984
    --------------------------------------------
      LOOP:  cpu time      4.5301: real time      4.5549

 eigenvalue-minimisations  :     0
 total energy-change (2. order) :-0.3144263E-05  (-0.5207689E-05)
 number of electron      48.0000005 magnetization 
 augmentation part        2.1303420 magnetization 

 DIPCOR: dipole corrections for dipol
 direction  1 min pos     1, direction  2 min pos     1, direction  3 min pos     1,
 dipolmoment          -2.441296     -1.144655     -0.215308 electrons x Angstroem
 Tr[quadrupol]        27.997759

 energy correction for charged system         0.000000 eV
 dipol+quadrupol energy correction           -0.027583 eV
 added-field ion interaction         -0.578404 eV  (added to PSCEN)


 Free energy of the ion-electron system (eV)
  ---------------------------------------------------
  alpha Z        PSCENC =         0.62218795
  Ewald energy   TEWEN  =      3801.54298216
  -Hartree energ DENC   =     -5664.64223559
  -exchange      EXHF   =       112.87666204
  -V(xc)+E(xc)   XCENC  =       147.84260025
  PAW double counting   =      4467.60952657    -4479.68841306
  entropy T*S    EENTRO =        -0.00000000
  eigenvalues    EBANDS =      -736.73649256
  atomic energy  EATOM  =      2244.98853179
  ---------------------------------------------------
  free energy    TOTEN  =      -105.58465044 eV

  energy without entropy =     -105.58465044  energy(sigma->0) =     -105.58465044
  exchange ACFDT corr.  =        -0.00000000  see jH, gK, PRB 81, 115126


--------------------------------------------------------------------------------------------------------




--------------------------------------- Iteration      1(  80)  ---------------------------------------


    POTLOK:  cpu time      0.8524: real time      0.8559
    SETDIJ:  cpu time      0.0021: real time      0.0021
    TRIAL :  cpu time      3.5617: real time      3.5816
    CORREC:  cpu time      0.0001: real time      0.0001
    CHARGE:  cpu time      0.0977: real time      0.0985
    --------------------------------------------
      LOOP:  cpu time      4.5144: real time      4.5385

 eigenvalue-minimisations  :     0
 total energy-change (2. order) :-0.4567749E-05  (-0.4569664E-05)
 number of electron      48.0000005 magnetization 
 augmentation part        2.1303403 magnetization 

 DIPCOR: dipole corrections for dipol
 direction  1 min pos     1, direction  2 min pos     1, direction  3 min pos     1,
 dipolmoment          -2.441306     -1.144622     -0.215267 electrons x Angstroem
 Tr[quadrupol]        27.997877

 energy correction for charged system         0.000000 eV
 dipol+quadrupol energy correction           -0.027582 eV
 added-field ion interaction         -0.578398 eV  (added to PSCEN)


 Free energy of the ion-electron system (eV)
  ---------------------------------------------------
  alpha Z        PSCENC =         0.62219558
  Ewald energy   TEWEN  =      3801.54298216
  -Hartree energ DENC   =     -5664.64106480
  -exchange      EXHF   =       112.87666264
  -V(xc)+E(xc)   XCENC  =       147.84258860
  PAW double counting   =      4467.61013770    -4479.68901822
  entropy T*S    EENTRO =        -0.00000000
  eigenvalues    EBANDS =      -736.73767045
  atomic energy  EATOM  =      2244.98853179
  ---------------------------------------------------
  free energy    TOTEN  =      -105.58465501 eV

  energy without entropy =     -105.58465501  energy(sigma->0) =     -105.58465501
  exchange ACFDT corr.  =        -0.00000000  see jH, gK, PRB 81, 115126


--------------------------------------------------------------------------------------------------------




--------------------------------------- Iteration      1(  81)  ---------------------------------------


    POTLOK:  cpu time      0.8515: real time      0.8548
    SETDIJ:  cpu time      0.0022: real time      0.0022
    TRIAL :  cpu time      3.5667: real time      3.5873
    CORREC:  cpu time      0.0001: real time      0.0001
    CHARGE:  cpu time      0.0975: real time      0.0983
    --------------------------------------------
      LOOP:  cpu time      4.5182: real time      4.5429

 eigenvalue-minimisations  :     0
 total energy-change (2. order) :-0.2776559E-05  (-0.4287208E-05)
 number of electron      48.0000005 magnetization 
 augmentation part        2.1303385 magnetization 

 DIPCOR: dipole corrections for dipol
 direction  1 min pos     1, direction  2 min pos     1, direction  3 min pos     1,
 dipolmoment          -2.441267     -1.144645     -0.215311 electrons x Angstroem
 Tr[quadrupol]        27.997773

 energy correction for charged system         0.000000 eV
 dipol+quadrupol energy correction           -0.027582 eV
 added-field ion interaction         -0.578396 eV  (added to PSCEN)


 Free energy of the ion-electron system (eV)
  ---------------------------------------------------
  alpha Z        PSCENC =         0.62219698
  Ewald energy   TEWEN  =      3801.54298216
  -Hartree energ DENC   =     -5664.64176190
  -exchange      EXHF   =       112.87668342
  -V(xc)+E(xc)   XCENC  =       147.84260728
  PAW double counting   =      4467.61236169    -4479.69123727
  entropy T*S    EENTRO =        -0.00000000
  eigenvalues    EBANDS =      -736.73702194
  atomic energy  EATOM  =      2244.98853179
  ---------------------------------------------------
  free energy    TOTEN  =      -105.58465778 eV

  energy without entropy =     -105.58465778  energy(sigma->0) =     -105.58465778
  exchange ACFDT corr.  =        -0.00000000  see jH, gK, PRB 81, 115126


--------------------------------------------------------------------------------------------------------




--------------------------------------- Iteration      1(  82)  ---------------------------------------


    POTLOK:  cpu time      0.8519: real time      0.8551
    SETDIJ:  cpu time      0.0021: real time      0.0022
    TRIAL :  cpu time      3.5626: real time      3.5826
    CORREC:  cpu time      0.0001: real time      0.0001
    CHARGE:  cpu time      0.0981: real time      0.0990
    --------------------------------------------
      LOOP:  cpu time      4.5151: real time      4.5392

 eigenvalue-minimisations  :     0
 total energy-change (2. order) :-0.3564713E-05  (-0.4372258E-05)
 number of electron      48.0000005 magnetization 
 augmentation part        2.1303377 magnetization 

 DIPCOR: dipole corrections for dipol
 direction  1 min pos     1, direction  2 min pos     1, direction  3 min pos     1,
 dipolmoment          -2.441275     -1.144614     -0.215262 electrons x Angstroem
 Tr[quadrupol]        27.997901

 energy correction for charged system         0.000000 eV
 dipol+quadrupol energy correction           -0.027582 eV
 added-field ion interaction         -0.578396 eV  (added to PSCEN)


 Free energy of the ion-electron system (eV)
  ---------------------------------------------------
  alpha Z        PSCENC =         0.62219680
  Ewald energy   TEWEN  =      3801.54298216
  -Hartree energ DENC   =     -5664.64085218
  -exchange      EXHF   =       112.87668446
  -V(xc)+E(xc)   XCENC  =       147.84258533
  PAW double counting   =      4467.61283823    -4479.69170805
  entropy T*S    EENTRO =        -0.00000000
  eigenvalues    EBANDS =      -736.73791989
  atomic energy  EATOM  =      2244.98853179
  ---------------------------------------------------
  free energy    TOTEN  =      -105.58466135 eV

  energy without entropy =     -105.58466135  energy(sigma->0) =     -105.58466135
  exchange ACFDT corr.  =        -0.00000000  see jH, gK, PRB 81, 115126


--------------------------------------------------------------------------------------------------------




--------------------------------------- Iteration      1(  83)  ---------------------------------------


    POTLOK:  cpu time      0.8516: real time      0.8550
    SETDIJ:  cpu time      0.0022: real time      0.0022
    TRIAL :  cpu time      3.5790: real time      3.6004
    CORREC:  cpu time      0.0001: real time      0.0001
    CHARGE:  cpu time      0.0975: real time      0.0983
    --------------------------------------------
      LOOP:  cpu time      4.5307: real time      4.5562

 eigenvalue-minimisations  :     0
 total energy-change (2. order) :-0.1834600E-05  (-0.4490193E-05)
 number of electron      48.0000005 magnetization 
 augmentation part        2.1303348 magnetization 

 DIPCOR: dipole corrections for dipol
 direction  1 min pos     1, direction  2 min pos     1, direction  3 min pos     1,
 dipolmoment          -2.441241     -1.144632     -0.215318 electrons x Angstroem
 Tr[quadrupol]        27.997784

 energy correction for charged system         0.000000 eV
 dipol+quadrupol energy correction           -0.027582 eV
 added-field ion interaction         -0.578389 eV  (added to PSCEN)


 Free energy of the ion-electron system (eV)
  ---------------------------------------------------
  alpha Z        PSCENC =         0.62220494
  Ewald energy   TEWEN  =      3801.54298216
  -Hartree energ DENC   =     -5664.64172092
  -exchange      EXHF   =       112.87671281
  -V(xc)+E(xc)   XCENC  =       147.84266465
  PAW double counting   =      4467.61515386    -4479.69402198
  entropy T*S    EENTRO =        -0.00000000
  eigenvalues    EBANDS =      -736.73717050
  atomic energy  EATOM  =      2244.98853179
  ---------------------------------------------------
  free energy    TOTEN  =      -105.58466318 eV

  energy without entropy =     -105.58466318  energy(sigma->0) =     -105.58466318
  exchange ACFDT corr.  =        -0.00000000  see jH, gK, PRB 81, 115126


--------------------------------------------------------------------------------------------------------




--------------------------------------- Iteration      1(  84)  ---------------------------------------


    POTLOK:  cpu time      0.8516: real time      0.8546
    SETDIJ:  cpu time      0.0024: real time      0.0024
    TRIAL :  cpu time      3.5663: real time      3.5870
    CORREC:  cpu time      0.0001: real time      0.0001
    CHARGE:  cpu time      0.0974: real time      0.0985
    --------------------------------------------
      LOOP:  cpu time      4.5181: real time      4.5430

 eigenvalue-minimisations  :     0
 total energy-change (2. order) :-0.2861512E-05  (-0.4859255E-05)
 number of electron      48.0000005 magnetization 
 augmentation part        2.1303338 magnetization 

 DIPCOR: dipole corrections for dipol
 direction  1 min pos     1, direction  2 min pos     1, direction  3 min pos     1,
 dipolmoment          -2.441247     -1.144608     -0.215252 electrons x Angstroem
 Tr[quadrupol]        27.997942

 energy correction for charged system         0.000000 eV
 dipol+quadrupol energy correction           -0.027581 eV
 added-field ion interaction         -0.578386 eV  (added to PSCEN)


 Free energy of the ion-electron system (eV)
  ---------------------------------------------------
  alpha Z        PSCENC =         0.62220849
  Ewald energy   TEWEN  =      3801.54298216
  -Hartree energ DENC   =     -5664.63999787
  -exchange      EXHF   =       112.87669378
  -V(xc)+E(xc)   XCENC  =       147.84257981
  PAW double counting   =      4467.61425942    -4479.69311878
  entropy T*S    EENTRO =        -0.00000000
  eigenvalues    EBANDS =      -736.73880485
  atomic energy  EATOM  =      2244.98853179
  ---------------------------------------------------
  free energy    TOTEN  =      -105.58466605 eV

  energy without entropy =     -105.58466605  energy(sigma->0) =     -105.58466605
  exchange ACFDT corr.  =        -0.00000000  see jH, gK, PRB 81, 115126


--------------------------------------------------------------------------------------------------------




--------------------------------------- Iteration      1(  85)  ---------------------------------------


    POTLOK:  cpu time      0.8507: real time      0.8535
    SETDIJ:  cpu time      0.0032: real time      0.0032
    TRIAL :  cpu time      3.5685: real time      3.5886
    CORREC:  cpu time      0.0001: real time      0.0001
    CHARGE:  cpu time      0.0974: real time      0.0981
    --------------------------------------------
      LOOP:  cpu time      4.5202: real time      4.5438

 eigenvalue-minimisations  :     0
 total energy-change (2. order) :-0.2223291E-05  (-0.4653444E-05)
 number of electron      48.0000005 magnetization 
 augmentation part        2.1303317 magnetization 

 DIPCOR: dipole corrections for dipol
 direction  1 min pos     1, direction  2 min pos     1, direction  3 min pos     1,
 dipolmoment          -2.441212     -1.144624     -0.215331 electrons x Angstroem
 Tr[quadrupol]        27.997797

 energy correction for charged system         0.000000 eV
 dipol+quadrupol energy correction           -0.027581 eV
 added-field ion interaction         -0.578381 eV  (added to PSCEN)


 Free energy of the ion-electron system (eV)
  ---------------------------------------------------
  alpha Z        PSCENC =         0.62221340
  Ewald energy   TEWEN  =      3801.54298216
  -Hartree energ DENC   =     -5664.64103181
  -exchange      EXHF   =       112.87672456
  -V(xc)+E(xc)   XCENC  =       147.84270862
  PAW double counting   =      4467.61660305    -4479.69545974
  entropy T*S    EENTRO =        -0.00000000
  eigenvalues    EBANDS =      -736.73794030
  atomic energy  EATOM  =      2244.98853179
  ---------------------------------------------------
  free energy    TOTEN  =      -105.58466827 eV

  energy without entropy =     -105.58466827  energy(sigma->0) =     -105.58466827
  exchange ACFDT corr.  =        -0.00000000  see jH, gK, PRB 81, 115126


--------------------------------------------------------------------------------------------------------




--------------------------------------- Iteration      1(  86)  ---------------------------------------


    POTLOK:  cpu time      0.8516: real time      0.8547
    SETDIJ:  cpu time      0.0023: real time      0.0023
    TRIAL :  cpu time      3.5870: real time      3.6080
    CORREC:  cpu time      0.0001: real time      0.0001
    CHARGE:  cpu time      0.0970: real time      0.0978
    --------------------------------------------
      LOOP:  cpu time      4.5495: real time      4.5759

 eigenvalue-minimisations  :     0
 total energy-change (2. order) :-0.2292782E-05  (-0.4224195E-05)
 number of electron      48.0000005 magnetization 
 augmentation part        2.1303316 magnetization 

 DIPCOR: dipole corrections for dipol
 direction  1 min pos     1, direction  2 min pos     1, direction  3 min pos     1,
 dipolmoment          -2.441213     -1.144608     -0.215256 electrons x Angstroem
 Tr[quadrupol]        27.997996

 energy correction for charged system         0.000000 eV
 dipol+quadrupol energy correction           -0.027580 eV
 added-field ion interaction         -0.578377 eV  (added to PSCEN)


 Free energy of the ion-electron system (eV)
  ---------------------------------------------------
  alpha Z        PSCENC =         0.62221782
  Ewald energy   TEWEN  =      3801.54298216
  -Hartree energ DENC   =     -5664.63958387
  -exchange      EXHF   =       112.87671225
  -V(xc)+E(xc)   XCENC  =       147.84250162
  PAW double counting   =      4467.61615103    -4479.69500165
  entropy T*S    EENTRO =        -0.00000000
  eigenvalues    EBANDS =      -736.73918172
  atomic energy  EATOM  =      2244.98853179
  ---------------------------------------------------
  free energy    TOTEN  =      -105.58467056 eV

  energy without entropy =     -105.58467056  energy(sigma->0) =     -105.58467056
  exchange ACFDT corr.  =        -0.00000000  see jH, gK, PRB 81, 115126


--------------------------------------------------------------------------------------------------------




--------------------------------------- Iteration      1(  87)  ---------------------------------------


    POTLOK:  cpu time      0.8533: real time      0.8566
    SETDIJ:  cpu time      0.0021: real time      0.0021
    TRIAL :  cpu time      3.5763: real time      3.5962
    CORREC:  cpu time      0.0001: real time      0.0001
    CHARGE:  cpu time      0.0976: real time      0.0983
    --------------------------------------------
      LOOP:  cpu time      4.5305: real time      4.5544

 eigenvalue-minimisations  :     0
 total energy-change (2. order) :-0.3624137E-05  (-0.3993690E-05)
 number of electron      48.0000005 magnetization 
 augmentation part        2.1303277 magnetization 

 DIPCOR: dipole corrections for dipol
 direction  1 min pos     1, direction  2 min pos     1, direction  3 min pos     1,
 dipolmoment          -2.441200     -1.144615     -0.215319 electrons x Angstroem
 Tr[quadrupol]        27.997726

 energy correction for charged system         0.000000 eV
 dipol+quadrupol energy correction           -0.027581 eV
 added-field ion interaction         -0.578382 eV  (added to PSCEN)


 Free energy of the ion-electron system (eV)
  ---------------------------------------------------
  alpha Z        PSCENC =         0.62221281
  Ewald energy   TEWEN  =      3801.54298216
  -Hartree energ DENC   =     -5664.64213879
  -exchange      EXHF   =       112.87677305
  -V(xc)+E(xc)   XCENC  =       147.84280740
  PAW double counting   =      4467.61959409    -4479.69844523
  entropy T*S    EENTRO =        -0.00000000
  eigenvalues    EBANDS =      -736.73699147
  atomic energy  EATOM  =      2244.98853179
  ---------------------------------------------------
  free energy    TOTEN  =      -105.58467419 eV

  energy without entropy =     -105.58467419  energy(sigma->0) =     -105.58467419
  exchange ACFDT corr.  =        -0.00000000  see jH, gK, PRB 81, 115126


--------------------------------------------------------------------------------------------------------




--------------------------------------- Iteration      1(  88)  ---------------------------------------


    POTLOK:  cpu time      0.8524: real time      0.8554
    SETDIJ:  cpu time      0.0023: real time      0.0023
    TRIAL :  cpu time      3.5769: real time      3.5975
    CORREC:  cpu time      0.0001: real time      0.0001
    CHARGE:  cpu time      0.0975: real time      0.0983
    --------------------------------------------
      LOOP:  cpu time      4.5295: real time      4.5538

 eigenvalue-minimisations  :     0
 total energy-change (2. order) :-0.1279425E-05  (-0.3908246E-05)
 number of electron      48.0000005 magnetization 
 augmentation part        2.1303283 magnetization 

 DIPCOR: dipole corrections for dipol
 direction  1 min pos     1, direction  2 min pos     1, direction  3 min pos     1,
 dipolmoment          -2.441182     -1.144600     -0.215261 electrons x Angstroem
 Tr[quadrupol]        27.998065

 energy correction for charged system         0.000000 eV
 dipol+quadrupol energy correction           -0.027581 eV
 added-field ion interaction         -0.578376 eV  (added to PSCEN)


 Free energy of the ion-electron system (eV)
  ---------------------------------------------------
  alpha Z        PSCENC =         0.62221918
  Ewald energy   TEWEN  =      3801.54298216
  -Hartree energ DENC   =     -5664.63820651
  -exchange      EXHF   =       112.87670675
  -V(xc)+E(xc)   XCENC  =       147.84249900
  PAW double counting   =      4467.61671192    -4479.69555070
  entropy T*S    EENTRO =        -0.00000000
  eigenvalues    EBANDS =      -736.74056906
  atomic energy  EATOM  =      2244.98853179
  ---------------------------------------------------
  free energy    TOTEN  =      -105.58467546 eV

  energy without entropy =     -105.58467546  energy(sigma->0) =     -105.58467546
  exchange ACFDT corr.  =        -0.00000000  see jH, gK, PRB 81, 115126


--------------------------------------------------------------------------------------------------------




--------------------------------------- Iteration      1(  89)  ---------------------------------------


    POTLOK:  cpu time      0.8529: real time      0.8562
    SETDIJ:  cpu time      0.0023: real time      0.0023
    TRIAL :  cpu time      3.5793: real time      3.5992
    CORREC:  cpu time      0.0001: real time      0.0001
    CHARGE:  cpu time      0.0975: real time      0.0982
    --------------------------------------------
      LOOP:  cpu time      4.5323: real time      4.5563

 eigenvalue-minimisations  :     0
 total energy-change (2. order) :-0.2482542E-05  (-0.3754036E-05)
 number of electron      48.0000005 magnetization 
 augmentation part        2.1303256 magnetization 

 DIPCOR: dipole corrections for dipol
 direction  1 min pos     1, direction  2 min pos     1, direction  3 min pos     1,
 dipolmoment          -2.441177     -1.144617     -0.215329 electrons x Angstroem
 Tr[quadrupol]        27.997809

 energy correction for charged system         0.000000 eV
 dipol+quadrupol energy correction           -0.027581 eV
 added-field ion interaction         -0.578380 eV  (added to PSCEN)


 Free energy of the ion-electron system (eV)
  ---------------------------------------------------
  alpha Z        PSCENC =         0.62221492
  Ewald energy   TEWEN  =      3801.54298216
  -Hartree energ DENC   =     -5664.64136423
  -exchange      EXHF   =       112.87678278
  -V(xc)+E(xc)   XCENC  =       147.84275687
  PAW double counting   =      4467.62070472    -4479.69954638
  entropy T*S    EENTRO =        -0.00000000
  eigenvalues    EBANDS =      -736.73774059
  atomic energy  EATOM  =      2244.98853179
  ---------------------------------------------------
  free energy    TOTEN  =      -105.58467795 eV

  energy without entropy =     -105.58467795  energy(sigma->0) =     -105.58467795
  exchange ACFDT corr.  =        -0.00000000  see jH, gK, PRB 81, 115126


--------------------------------------------------------------------------------------------------------




--------------------------------------- Iteration      1(  90)  ---------------------------------------


    POTLOK:  cpu time      0.8516: real time      0.8546
    SETDIJ:  cpu time      0.0030: real time      0.0030
    TRIAL :  cpu time      3.5737: real time      3.5980
    CORREC:  cpu time      0.0001: real time      0.0001
    CHARGE:  cpu time      0.0972: real time      0.0982
    --------------------------------------------
      LOOP:  cpu time      4.5258: real time      4.5541

 eigenvalue-minimisations  :     0
 total energy-change (2. order) :-0.2342577E-05  (-0.4347800E-05)
 number of electron      48.0000005 magnetization 
 augmentation part        2.1303246 magnetization 

 DIPCOR: dipole corrections for dipol
 direction  1 min pos     1, direction  2 min pos     1, direction  3 min pos     1,
 dipolmoment          -2.441162     -1.144593     -0.215250 electrons x Angstroem
 Tr[quadrupol]        27.997952

 energy correction for charged system         0.000000 eV
 dipol+quadrupol energy correction           -0.027580 eV
 added-field ion interaction         -0.578373 eV  (added to PSCEN)


 Free energy of the ion-electron system (eV)
  ---------------------------------------------------
  alpha Z        PSCENC =         0.62222277
  Ewald energy   TEWEN  =      3801.54298216
  -Hartree energ DENC   =     -5664.63938795
  -exchange      EXHF   =       112.87675143
  -V(xc)+E(xc)   XCENC  =       147.84262593
  PAW double counting   =      4467.61951984    -4479.69835391
  entropy T*S    EENTRO =        -0.00000000
  eigenvalues    EBANDS =      -736.73957236
  atomic energy  EATOM  =      2244.98853179
  ---------------------------------------------------
  free energy    TOTEN  =      -105.58468029 eV

  energy without entropy =     -105.58468029  energy(sigma->0) =     -105.58468029
  exchange ACFDT corr.  =        -0.00000000  see jH, gK, PRB 81, 115126


--------------------------------------------------------------------------------------------------------




--------------------------------------- Iteration      1(  91)  ---------------------------------------


    POTLOK:  cpu time      0.8541: real time      0.8577
    SETDIJ:  cpu time      0.0028: real time      0.0028
    TRIAL :  cpu time      3.5776: real time      3.6014
    CORREC:  cpu time      0.0001: real time      0.0001
    CHARGE:  cpu time      0.0974: real time      0.0982
    --------------------------------------------
      LOOP:  cpu time      4.5323: real time      4.5605

 eigenvalue-minimisations  :     0
 total energy-change (2. order) :-0.2490832E-05  (-0.4202340E-05)
 number of electron      48.0000005 magnetization 
 augmentation part        2.1303238 magnetization 

 DIPCOR: dipole corrections for dipol
 direction  1 min pos     1, direction  2 min pos     1, direction  3 min pos     1,
 dipolmoment          -2.441148     -1.144609     -0.215358 electrons x Angstroem
 Tr[quadrupol]        27.997890

 energy correction for charged system         0.000000 eV
 dipol+quadrupol energy correction           -0.027580 eV
 added-field ion interaction         -0.578374 eV  (added to PSCEN)


 Free energy of the ion-electron system (eV)
  ---------------------------------------------------
  alpha Z        PSCENC =         0.62222109
  Ewald energy   TEWEN  =      3801.54298216
  -Hartree energ DENC   =     -5664.63998996
  -exchange      EXHF   =       112.87677304
  -V(xc)+E(xc)   XCENC  =       147.84268123
  PAW double counting   =      4467.62082506    -4479.69965673
  entropy T*S    EENTRO =        -0.00000000
  eigenvalues    EBANDS =      -736.73905047
  atomic energy  EATOM  =      2244.98853179
  ---------------------------------------------------
  free energy    TOTEN  =      -105.58468278 eV

  energy without entropy =     -105.58468278  energy(sigma->0) =     -105.58468278
  exchange ACFDT corr.  =        -0.00000000  see jH, gK, PRB 81, 115126


--------------------------------------------------------------------------------------------------------




--------------------------------------- Iteration      1(  92)  ---------------------------------------


    POTLOK:  cpu time      0.8519: real time      0.8559
    SETDIJ:  cpu time      0.0024: real time      0.0024
    TRIAL :  cpu time      3.5839: real time      3.6083
    CORREC:  cpu time      0.0001: real time      0.0001
    CHARGE:  cpu time      0.0973: real time      0.0982
    --------------------------------------------
      LOOP:  cpu time      4.5362: real time      4.5654

 eigenvalue-minimisations  :     0
 total energy-change (2. order) :-0.1411822E-05  (-0.3512327E-05)
 number of electron      48.0000005 magnetization 
 augmentation part        2.1303211 magnetization 

 DIPCOR: dipole corrections for dipol
 direction  1 min pos     1, direction  2 min pos     1, direction  3 min pos     1,
 dipolmoment          -2.441148     -1.144595     -0.215248 electrons x Angstroem
 Tr[quadrupol]        27.997877

 energy correction for charged system         0.000000 eV
 dipol+quadrupol energy correction           -0.027579 eV
 added-field ion interaction         -0.578363 eV  (added to PSCEN)


 Free energy of the ion-electron system (eV)
  ---------------------------------------------------
  alpha Z        PSCENC =         0.62223343
  Ewald energy   TEWEN  =      3801.54298216
  -Hartree energ DENC   =     -5664.64035055
  -exchange      EXHF   =       112.87678983
  -V(xc)+E(xc)   XCENC  =       147.84267454
  PAW double counting   =      4467.62183836    -4479.70066751
  entropy T*S    EENTRO =        -0.00000000
  eigenvalues    EBANDS =      -736.73871625
  atomic energy  EATOM  =      2244.98853179
  ---------------------------------------------------
  free energy    TOTEN  =      -105.58468419 eV

  energy without entropy =     -105.58468419  energy(sigma->0) =     -105.58468419
  exchange ACFDT corr.  =        -0.00000000  see jH, gK, PRB 81, 115126


--------------------------------------------------------------------------------------------------------




--------------------------------------- Iteration      1(  93)  ---------------------------------------


    POTLOK:  cpu time      0.8524: real time      0.8559
    SETDIJ:  cpu time      0.0025: real time      0.0025
    TRIAL :  cpu time      3.5723: real time      3.5954
    CORREC:  cpu time      0.0001: real time      0.0001
    CHARGE:  cpu time      0.0972: real time      0.0985
    --------------------------------------------
      LOOP:  cpu time      4.5248: real time      4.5527

 eigenvalue-minimisations  :     0
 total energy-change (2. order) :-0.2024843E-05  (-0.3229670E-05)
 number of electron      48.0000005 magnetization 
 augmentation part        2.1303212 magnetization 

 DIPCOR: dipole corrections for dipol
 direction  1 min pos     1, direction  2 min pos     1, direction  3 min pos     1,
 dipolmoment          -2.441123     -1.144595     -0.215337 electrons x Angstroem
 Tr[quadrupol]        27.997937

 energy correction for charged system         0.000000 eV
 dipol+quadrupol energy correction           -0.027579 eV
 added-field ion interaction         -0.578364 eV  (added to PSCEN)


 Free energy of the ion-electron system (eV)
  ---------------------------------------------------
  alpha Z        PSCENC =         0.62223223
  Ewald energy   TEWEN  =      3801.54298216
  -Hartree energ DENC   =     -5664.63937991
  -exchange      EXHF   =       112.87677635
  -V(xc)+E(xc)   XCENC  =       147.84270826
  PAW double counting   =      4467.62173364    -4479.70055553
  entropy T*S    EENTRO =        -0.00000000
  eigenvalues    EBANDS =      -736.73971522
  atomic energy  EATOM  =      2244.98853179
  ---------------------------------------------------
  free energy    TOTEN  =      -105.58468622 eV

  energy without entropy =     -105.58468622  energy(sigma->0) =     -105.58468622
  exchange ACFDT corr.  =        -0.00000000  see jH, gK, PRB 81, 115126


--------------------------------------------------------------------------------------------------------




--------------------------------------- Iteration      1(  94)  ---------------------------------------


    POTLOK:  cpu time      0.8532: real time      0.8559
    SETDIJ:  cpu time      0.0022: real time      0.0022
    TRIAL :  cpu time      3.5766: real time      3.5970
    CORREC:  cpu time      0.0001: real time      0.0001
    CHARGE:  cpu time      0.0974: real time      0.0981
    --------------------------------------------
      LOOP:  cpu time      4.5298: real time      4.5536

 eigenvalue-minimisations  :     0
 total energy-change (2. order) :-0.8560910E-06  (-0.3162031E-05)
 number of electron      48.0000005 magnetization 
 augmentation part        2.1303191 magnetization 

 DIPCOR: dipole corrections for dipol
 direction  1 min pos     1, direction  2 min pos     1, direction  3 min pos     1,
 dipolmoment          -2.441145     -1.144600     -0.215269 electrons x Angstroem
 Tr[quadrupol]        27.997946

 energy correction for charged system         0.000000 eV
 dipol+quadrupol energy correction           -0.027579 eV
 added-field ion interaction         -0.578364 eV  (added to PSCEN)


 Free energy of the ion-electron system (eV)
  ---------------------------------------------------
  alpha Z        PSCENC =         0.62223288
  Ewald energy   TEWEN  =      3801.54298216
  -Hartree energ DENC   =     -5664.63952090
  -exchange      EXHF   =       112.87679590
  -V(xc)+E(xc)   XCENC  =       147.84264741
  PAW double counting   =      4467.62258476    -4479.70140643
  entropy T*S    EENTRO =        -0.00000000
  eigenvalues    EBANDS =      -736.73953465
  atomic energy  EATOM  =      2244.98853179
  ---------------------------------------------------
  free energy    TOTEN  =      -105.58468707 eV

  energy without entropy =     -105.58468707  energy(sigma->0) =     -105.58468707
  exchange ACFDT corr.  =        -0.00000000  see jH, gK, PRB 81, 115126


--------------------------------------------------------------------------------------------------------




--------------------------------------- Iteration      1(  95)  ---------------------------------------


    POTLOK:  cpu time      0.8528: real time      0.8557
    SETDIJ:  cpu time      0.0021: real time      0.0021
    TRIAL :  cpu time      3.5741: real time      3.5972
    CORREC:  cpu time      0.0001: real time      0.0001
    CHARGE:  cpu time      0.0978: real time      0.0983
    --------------------------------------------
      LOOP:  cpu time      4.5272: real time      4.5538

 eigenvalue-minimisations  :     0
 total energy-change (2. order) :-0.2317410E-05  (-0.2886880E-05)
 number of electron      48.0000005 magnetization 
 augmentation part        2.1303178 magnetization 

 DIPCOR: dipole corrections for dipol
 direction  1 min pos     1, direction  2 min pos     1, direction  3 min pos     1,
 dipolmoment          -2.441099     -1.144586     -0.215319 electrons x Angstroem
 Tr[quadrupol]        27.997896

 energy correction for charged system         0.000000 eV
 dipol+quadrupol energy correction           -0.027579 eV
 added-field ion interaction         -0.578357 eV  (added to PSCEN)


 Free energy of the ion-electron system (eV)
  ---------------------------------------------------
  alpha Z        PSCENC =         0.62224001
  Ewald energy   TEWEN  =      3801.54298216
  -Hartree energ DENC   =     -5664.63994945
  -exchange      EXHF   =       112.87680192
  -V(xc)+E(xc)   XCENC  =       147.84273871
  PAW double counting   =      4467.62326293    -4479.70207950
  entropy T*S    EENTRO =        -0.00000000
  eigenvalues    EBANDS =      -736.73921796
  atomic energy  EATOM  =      2244.98853179
  ---------------------------------------------------
  free energy    TOTEN  =      -105.58468939 eV

  energy without entropy =     -105.58468939  energy(sigma->0) =     -105.58468939
  exchange ACFDT corr.  =        -0.00000000  see jH, gK, PRB 81, 115126


--------------------------------------------------------------------------------------------------------




--------------------------------------- Iteration      1(  96)  ---------------------------------------


    POTLOK:  cpu time      0.8521: real time      0.8554
    SETDIJ:  cpu time      0.0023: real time      0.0023
    TRIAL :  cpu time      3.5758: real time      3.5957
    CORREC:  cpu time      0.0001: real time      0.0001
    CHARGE:  cpu time      0.0975: real time      0.0983
    --------------------------------------------
      LOOP:  cpu time      4.5280: real time      4.5521

 eigenvalue-minimisations  :     0
 total energy-change (2. order) :-0.1969613E-05  (-0.2597655E-05)
 number of electron      48.0000005 magnetization 
 augmentation part        2.1303174 magnetization 

 DIPCOR: dipole corrections for dipol
 direction  1 min pos     1, direction  2 min pos     1, direction  3 min pos     1,
 dipolmoment          -2.441128     -1.144600     -0.215283 electrons x Angstroem
 Tr[quadrupol]        27.997999

 energy correction for charged system         0.000000 eV
 dipol+quadrupol energy correction           -0.027580 eV
 added-field ion interaction         -0.578366 eV  (added to PSCEN)


 Free energy of the ion-electron system (eV)
  ---------------------------------------------------
  alpha Z        PSCENC =         0.62222940
  Ewald energy   TEWEN  =      3801.54298216
  -Hartree energ DENC   =     -5664.63860641
  -exchange      EXHF   =       112.87679191
  -V(xc)+E(xc)   XCENC  =       147.84263760
  PAW double counting   =      4467.62260112    -4479.70141338
  entropy T*S    EENTRO =        -0.00000000
  eigenvalues    EBANDS =      -736.74044556
  atomic energy  EATOM  =      2244.98853179
  ---------------------------------------------------
  free energy    TOTEN  =      -105.58469136 eV

  energy without entropy =     -105.58469136  energy(sigma->0) =     -105.58469136
  exchange ACFDT corr.  =        -0.00000000  see jH, gK, PRB 81, 115126


--------------------------------------------------------------------------------------------------------




--------------------------------------- Iteration      1(  97)  ---------------------------------------


    POTLOK:  cpu time      0.8524: real time      0.8554
    SETDIJ:  cpu time      0.0023: real time      0.0023
    TRIAL :  cpu time      3.5915: real time      3.6120
    CORREC:  cpu time      0.0001: real time      0.0001
    CHARGE:  cpu time      0.0976: real time      0.0983
    --------------------------------------------
      LOOP:  cpu time      4.5442: real time      4.5685

 eigenvalue-minimisations  :     0
 total energy-change (2. order) :-0.1366464E-05  (-0.2414150E-05)
 number of electron      48.0000005 magnetization 
 augmentation part        2.1303150 magnetization 

 DIPCOR: dipole corrections for dipol
 direction  1 min pos     1, direction  2 min pos     1, direction  3 min pos     1,
 dipolmoment          -2.441098     -1.144585     -0.215318 electrons x Angstroem
 Tr[quadrupol]        27.997902

 energy correction for charged system         0.000000 eV
 dipol+quadrupol energy correction           -0.027578 eV
 added-field ion interaction         -0.578356 eV  (added to PSCEN)


 Free energy of the ion-electron system (eV)
  ---------------------------------------------------
  alpha Z        PSCENC =         0.62224135
  Ewald energy   TEWEN  =      3801.54298216
  -Hartree energ DENC   =     -5664.64037661
  -exchange      EXHF   =       112.87683198
  -V(xc)+E(xc)   XCENC  =       147.84278500
  PAW double counting   =      4467.62491572    -4479.70372760
  entropy T*S    EENTRO =        -0.00000000
  eigenvalues    EBANDS =      -736.73887653
  atomic energy  EATOM  =      2244.98853179
  ---------------------------------------------------
  free energy    TOTEN  =      -105.58469273 eV

  energy without entropy =     -105.58469273  energy(sigma->0) =     -105.58469273
  exchange ACFDT corr.  =        -0.00000000  see jH, gK, PRB 81, 115126


--------------------------------------------------------------------------------------------------------




--------------------------------------- Iteration      1(  98)  ---------------------------------------


    POTLOK:  cpu time      0.8530: real time      0.8562
    SETDIJ:  cpu time      0.0022: real time      0.0022
    TRIAL :  cpu time      3.5693: real time      3.5892
    CORREC:  cpu time      0.0001: real time      0.0001
    CHARGE:  cpu time      0.0974: real time      0.0982
    --------------------------------------------
      LOOP:  cpu time      4.5223: real time      4.5462

 eigenvalue-minimisations  :     0
 total energy-change (2. order) :-0.1330935E-05  (-0.2674965E-05)
 number of electron      48.0000005 magnetization 
 augmentation part        2.1303150 magnetization 

 DIPCOR: dipole corrections for dipol
 direction  1 min pos     1, direction  2 min pos     1, direction  3 min pos     1,
 dipolmoment          -2.441106     -1.144595     -0.215282 electrons x Angstroem
 Tr[quadrupol]        27.998020

 energy correction for charged system         0.000000 eV
 dipol+quadrupol energy correction           -0.027579 eV
 added-field ion interaction         -0.578357 eV  (added to PSCEN)


 Free energy of the ion-electron system (eV)
  ---------------------------------------------------
  alpha Z        PSCENC =         0.62224040
  Ewald energy   TEWEN  =      3801.54298216
  -Hartree energ DENC   =     -5664.63779770
  -exchange      EXHF   =       112.87678751
  -V(xc)+E(xc)   XCENC  =       147.84263101
  PAW double counting   =      4467.62280235    -4479.70160762
  entropy T*S    EENTRO =        -0.00000000
  eigenvalues    EBANDS =      -736.74126396
  atomic energy  EATOM  =      2244.98853179
  ---------------------------------------------------
  free energy    TOTEN  =      -105.58469406 eV

  energy without entropy =     -105.58469406  energy(sigma->0) =     -105.58469406
  exchange ACFDT corr.  =        -0.00000000  see jH, gK, PRB 81, 115126


--------------------------------------------------------------------------------------------------------




--------------------------------------- Iteration      1(  99)  ---------------------------------------


    POTLOK:  cpu time      0.8532: real time      0.8562
    SETDIJ:  cpu time      0.0022: real time      0.0022
    TRIAL :  cpu time      3.5676: real time      3.5886
    CORREC:  cpu time      0.0001: real time      0.0001
    CHARGE:  cpu time      0.0974: real time      0.0982
    --------------------------------------------
      LOOP:  cpu time      4.5209: real time      4.5456

 eigenvalue-minimisations  :     0
 total energy-change (2. order) :-0.1767652E-05  (-0.2459719E-05)
 number of electron      48.0000005 magnetization 
 augmentation part        2.1303137 magnetization 

 DIPCOR: dipole corrections for dipol
 direction  1 min pos     1, direction  2 min pos     1, direction  3 min pos     1,
 dipolmoment          -2.441080     -1.144589     -0.215331 electrons x Angstroem
 Tr[quadrupol]        27.997903

 energy correction for charged system         0.000000 eV
 dipol+quadrupol energy correction           -0.027578 eV
 added-field ion interaction         -0.578353 eV  (added to PSCEN)


 Free energy of the ion-electron system (eV)
  ---------------------------------------------------
  alpha Z        PSCENC =         0.62224439
  Ewald energy   TEWEN  =      3801.54298216
  -Hartree energ DENC   =     -5664.64043442
  -exchange      EXHF   =       112.87684609
  -V(xc)+E(xc)   XCENC  =       147.84276227
  PAW double counting   =      4467.62598042    -4479.70478566
  entropy T*S    EENTRO =        -0.00000000
  eigenvalues    EBANDS =      -736.73882286
  atomic energy  EATOM  =      2244.98853179
  ---------------------------------------------------
  free energy    TOTEN  =      -105.58469583 eV

  energy without entropy =     -105.58469583  energy(sigma->0) =     -105.58469583
  exchange ACFDT corr.  =        -0.00000000  see jH, gK, PRB 81, 115126


--------------------------------------------------------------------------------------------------------




--------------------------------------- Iteration      1( 100)  ---------------------------------------


    POTLOK:  cpu time      0.8531: real time      0.8563
    SETDIJ:  cpu time      0.0022: real time      0.0022
    TRIAL :  cpu time      3.5681: real time      3.5882
    CORREC:  cpu time      0.0001: real time      0.0001
    EDDIAG:  cpu time      3.3550: real time      3.3741
    CHARGE:  cpu time      0.0981: real time      0.0986
    --------------------------------------------
      LOOP:  cpu time      7.8772: real time      7.9221

 eigenvalue-minimisations  :     0
 total energy-change (2. order) :-0.1010814E-05  (-0.2192032E-05)
 number of electron      48.0000005 magnetization 
 augmentation part        2.1303121 magnetization 

 DIPCOR: dipole corrections for dipol
 direction  1 min pos     1, direction  2 min pos     1, direction  3 min pos     1,
 dipolmoment          -2.441093     -1.144591     -0.215280 electrons x Angstroem
 Tr[quadrupol]        27.997998

 energy correction for charged system         0.000000 eV
 dipol+quadrupol energy correction           -0.027578 eV
 added-field ion interaction         -0.578354 eV  (added to PSCEN)


 Free energy of the ion-electron system (eV)
  ---------------------------------------------------
  alpha Z        PSCENC =         0.62224273
  Ewald energy   TEWEN  =      3801.54298216
  -Hartree energ DENC   =     -5664.63866995
  -exchange      EXHF   =       112.87682909
  -V(xc)+E(xc)   XCENC  =       147.84269657
  PAW double counting   =      4467.62407607    -4479.70287847
  entropy T*S    EENTRO =        -0.00000000
  eigenvalues    EBANDS =      -736.74049672
  atomic energy  EATOM  =      2244.98853179
  ---------------------------------------------------
  free energy    TOTEN  =      -105.58469684 eV

  energy without entropy =     -105.58469684  energy(sigma->0) =     -105.58469684
  exchange ACFDT corr.  =        -0.00000000  see jH, gK, PRB 81, 115126


--------------------------------------------------------------------------------------------------------


  average scaling for gradient   0.5435


 average (electrostatic) potential at core
  the test charge radii are     0.6991  0.5201  0.7089  0.7215
  (the norm of the test charge is              1.0000)
       1 -59.7052       2 -56.4187       3 -56.5476       4 -42.3126       5 -42.1973
       6 -41.5897       7 -43.0191       8 -41.2683       9 -71.2201      10 -73.1519
      11 -68.5341      12 -68.8433      13 -68.1818      14 -75.5487
 
 
 
 E-fermi :  -5.6598     XC(G=0):  -0.2179     alpha+bet : -0.1311

 Fermi energy:        -5.6598109670

 k-point     1 :       0.0000    0.0000    0.0000
  band No.  band energies     occupation 
      1     -29.0948      2.00000
      2     -28.3843      2.00000
      3     -27.6914      2.00000
      4     -25.6917      2.00000
      5     -22.4382      2.00000
      6     -20.9314      2.00000
      7     -19.5289      2.00000
      8     -17.6112      2.00000
      9     -16.6318      2.00000
     10     -16.2549      2.00000
     11     -15.6347      2.00000
     12     -14.9331      2.00000
     13     -14.1594      2.00000
     14     -13.3746      2.00000
     15     -12.0325      2.00000
     16     -11.6081      2.00000
     17     -10.2334      2.00000
     18      -9.1767      2.00000
     19      -9.0901      2.00000
     20      -8.6643      2.00000
     21      -6.7720      2.00000
     22      -6.3992      2.00000
     23      -6.1335      2.00000
     24      -5.8999      2.00000
     25      -3.2697      0.00000
     26      -1.4457      0.00000
     27      -0.7163      0.00000
     28      -0.5106      0.00000
     29      -0.0460      0.00000
     30       0.0294      0.00000
     31       0.1030      0.00000
     32       0.3748      0.00000


--------------------------------------------------------------------------------------------------------


 soft charge-density along one line, spin component           1
         0         1         2         3         4         5         6         7         8         9
 total charge-density along one line
 
 pseudopotential strength for first ion, spin component:           1
 10.270  13.659   0.001  -0.006   0.002  -0.002   0.018  -0.003
 13.659  18.166   0.001  -0.008   0.002  -0.002   0.024  -0.004
  0.001   0.001  -4.517   0.000  -0.002   8.859   0.000   0.003
 -0.006  -0.008   0.000  -4.525  -0.005   0.000   8.870   0.009
  0.002   0.002  -0.002  -0.005  -4.526   0.003   0.009   8.872
 -0.002  -0.002   8.859   0.000   0.003 -19.517  -0.003  -0.004
  0.018   0.024   0.000   8.870   0.009  -0.003 -19.526  -0.016
 -0.003  -0.004   0.003   0.009   8.872  -0.004  -0.016 -19.534
 total augmentation occupancy for first ion, spin component:           1
  7.720  -3.404   0.031  -0.538  -0.254   0.015  -0.111  -0.040
 -3.404   1.599  -0.035   0.418   0.108  -0.011   0.069   0.021
  0.031  -0.035   1.084  -0.153   0.153   0.067  -0.016   0.025
 -0.538   0.418  -0.153   1.845   0.122  -0.016   0.159   0.030
 -0.254   0.108   0.153   0.122   1.686   0.024   0.030   0.163
  0.015  -0.011   0.067  -0.016   0.024   0.005  -0.001   0.003
 -0.111   0.069  -0.016   0.159   0.030  -0.001   0.016   0.005
 -0.040   0.021   0.025   0.030   0.163   0.003   0.005   0.018


------------------------ aborting loop EDIFF was not reached (unconverged)  ----------------------------


 -----------------------------------------------------------------------------
|                                                                             |
|           W    W    AA    RRRRR   N    N  II  N    N   GGGG   !!!           |
|           W    W   A  A   R    R  NN   N  II  NN   N  G    G  !!!           |
|           W    W  A    A  R    R  N N  N  II  N N  N  G       !!!           |
|           W WW W  AAAAAA  RRRRR   N  N N  II  N  N N  G  GGG   !            |
|           WW  WW  A    A  R   R   N   NN  II  N   NN  G    G                |
|           W    W  A    A  R    R  N    N  II  N    N   GGGG   !!!           |
|                                                                             |
|     The electronic self-consistency was not achieved in the given           |
|     number of steps (NELM). The forces and other quantities evaluated       |
|     might not be reliable so examine the results carefully. If you find     |
|     spurious results, we suggest increasing NELM, if you were close to      |
|     convergence or switching to a different ALGO or adjusting the           |
|     density mixing parameters otherwise.                                    |
|                                                                             |
 -----------------------------------------------------------------------------




 total charge

# of ion       s       p       d       tot
------------------------------------------
    1        0.871   1.710   0.000   2.581
    2        0.842   1.828   0.000   2.670
    3        0.846   1.730   0.000   2.576
    4        0.583   0.073   0.000   0.656
    5        0.578   0.068   0.000   0.647
    6        0.649   0.053   0.000   0.703
    7        0.600   0.074   0.000   0.673
    8        0.565   0.096   0.000   0.662
    9        1.175   2.766   0.000   3.941
   10        1.234   2.764   0.000   3.997
   11        1.266   2.598   0.000   3.864
   12        1.281   2.508   0.000   3.789
   13        1.272   2.568   0.000   3.840
   14        1.540   3.623   0.000   5.163
--------------------------------------------------
tot         13.302  22.460   0.000  35.761
 
    FORLOC:  cpu time      0.0411: real time      0.0413
    FORHF :  cpu time      2.1632: real time      2.1765
    FORNL :  cpu time      0.0549: real time      0.0552
    FORCOR:  cpu time      0.8145: real time      0.8173
    OFIELD:  cpu time      0.0020: real time      0.0020

 VOLUME and BASIS-vectors are now :
 -----------------------------------------------------------------------------
  energy-cutoff  :      500.00
  volume of cell :     8000.00
      direct lattice vectors                 reciprocal lattice vectors
    20.000000000  0.000000000  0.000000000     0.050000000  0.000000000  0.000000000
     0.000000000 20.000000000  0.000000000     0.000000000  0.050000000  0.000000000
     0.000000000  0.000000000 20.000000000     0.000000000  0.000000000  0.050000000

  length of vectors
    20.000000000 20.000000000 20.000000000     0.050000000  0.050000000  0.050000000


 FORCES acting on ions:
    Electron-Ion                     Ewald-Force                    Non-Local-Force
 -----------------------------------------------------------------------------------------------
   -.102E+03 0.240E+02 -.151E+03   0.102E+03 -.244E+02 0.158E+03   0.218E+01 0.940E+00 -.658E+01
   -.858E+02 0.159E+02 0.323E+02   0.780E+02 -.159E+02 -.315E+02   0.684E+01 0.946E+00 -.138E+01
   0.510E+02 -.969E+02 0.278E+02   -.516E+02 0.912E+02 -.268E+02   -.136E+01 0.645E+01 -.433E+00
   -.774E+02 0.338E+02 0.390E+02   0.807E+02 -.361E+02 -.417E+02   -.445E+01 0.327E+01 0.348E+01
   -.434E+02 -.713E+02 -.388E+02   0.449E+02 0.748E+02 0.409E+02   -.148E+01 -.543E+01 -.286E+01
   -.358E+01 0.225E+02 -.837E+02   0.129E+01 -.245E+02 0.898E+02   0.178E+01 0.206E+01 -.575E+01
   -.404E+02 -.275E+02 0.941E+02   0.422E+02 0.295E+02 -.995E+02   -.220E+01 -.216E+01 0.616E+01
   0.243E+02 -.960E+02 -.602E+02   -.254E+02 0.991E+02 0.640E+02   0.115E+01 -.522E+01 -.458E+01
   -.235E+03 -.521E+02 -.225E+02   0.240E+03 0.531E+02 0.224E+02   -.436E+01 -.406E+00 0.330E+00
   -.106E+03 -.222E+02 0.148E+03   0.992E+02 0.231E+02 -.152E+03   0.527E+01 -.176E+01 0.390E+01
   -.116E+03 0.334E+03 -.312E+02   0.134E+03 -.367E+03 0.348E+02   -.158E+02 0.290E+02 -.308E+01
   0.253E+03 0.300E+03 -.613E+02   -.278E+03 -.332E+03 0.679E+02   0.237E+02 0.296E+02 -.625E+01
   0.368E+03 -.666E+02 -.616E+01   -.403E+03 0.801E+02 0.690E+01   0.332E+02 -.115E+02 -.697E+00
   0.700E+02 -.333E+03 0.948E+02   -.648E+02 0.349E+03 -.133E+03   -.438E+01 -.133E+02 0.341E+02
 -----------------------------------------------------------------------------------------------
   -.430E+02 -.344E+02 -.195E+02   0.284E-13 0.000E+00 0.000E+00   0.400E+02 0.325E+02 0.163E+02
 
 
 POSITION                                       TOTAL-FORCE (eV/Angst)
 -----------------------------------------------------------------------------------
     11.41674      9.83763     10.52961         2.524913      0.630788     -0.320107
      9.24608      9.39233      9.72031        -0.780445      0.983510     -0.545300
      8.15670     10.23672      9.65622        -2.012368      1.046190      0.602293
     13.45920      9.75242      9.78247        -1.331724      1.165569      0.882419
     13.00446     11.18235     10.85210        -0.082108     -2.180228     -0.859372
     11.10261      9.50498     11.50514        -0.440699      0.181190      0.128771
     10.94142     10.16540      8.61988        -0.489703     -0.196546      0.990602
      7.97710     12.30156     10.13400         0.076391     -2.297535     -0.893203
     12.75149     10.27584     10.35753         0.130922      0.547183      0.217047
     10.59530      9.83455      9.54942        -0.853404     -0.938363     -0.369459
      8.74978      8.16998      9.96140         1.008440     -1.686390      0.258706
      7.43056      8.24821     10.04262         0.789158      0.350075     -0.219408
      7.02279      9.50076      9.86112         1.194532      1.067587     -0.013551
      8.14578     11.59726      9.42818         0.266095      1.326971      0.140562
 -----------------------------------------------------------------------------------
    total drift:                               -0.015245     -0.001117      0.000497


--------------------------------------------------------------------------------------------------------



  FREE ENERGIE OF THE ION-ELECTRON SYSTEM (eV)
  ---------------------------------------------------
  free  energy   TOTEN  =      -105.58469684 eV

  energy  without entropy=     -105.58469684  energy(sigma->0) =     -105.58469684
 


--------------------------------------------------------------------------------------------------------


    POTLOK:  cpu time      0.8544: real time      0.8575


--------------------------------------------------------------------------------------------------------


 writing wavefunctions
     LOOP+:  cpu time    463.1477: real time    471.4039
    4ORBIT:  cpu time      0.0000: real time      0.0000



 total charge

# of ion       s       p       d       tot
------------------------------------------
    1        0.871   1.710   0.000   2.581
    2        0.842   1.828   0.000   2.670
    3        0.846   1.730   0.000   2.576
    4        0.583   0.073   0.000   0.656
    5        0.578   0.068   0.000   0.647
    6        0.649   0.053   0.000   0.703
    7        0.600   0.074   0.000   0.673
    8        0.565   0.096   0.000   0.662
    9        1.175   2.766   0.000   3.941
   10        1.234   2.764   0.000   3.997
   11        1.266   2.598   0.000   3.864
   12        1.281   2.508   0.000   3.789
   13        1.272   2.568   0.000   3.840
   14        1.540   3.623   0.000   5.163
--------------------------------------------------
tot         13.302  22.460   0.000  35.761
 

 total amount of memory used by VASP MPI-rank0   651730. kBytes
=======================================================================

   base      :      30000. kBytes
   nonl-proj :      24399. kBytes
   fftplans  :      75720. kBytes
   grid      :      99427. kBytes
   one-center:         12. kBytes
   HF        :         13. kBytes
   nonlr-proj:        648. kBytes
   wavefun   :       9765. kBytes
   fock_wrk  :     411746. kBytes
 
  
  
 General timing and accounting informations for this job:
 ========================================================
  
                  Total CPU time used (sec):      480.449
                            User time (sec):      426.080
                          System time (sec):       54.369
                         Elapsed time (sec):      493.872
  
                   Maximum memory used (kb):     1095376.
                   Average memory used (kb):          N/A
  
                          Minor page faults:      1951338
                          Major page faults:           64
                 Voluntary context switches:        20200
