Molecule_POSCAR_02
1.0
20.000000 0.000000 0.000000
0.000000 20.000000 0.000000
0.000000 0.000000 20.000000
C H N O
3 5 5 1
Cartesian
11.416736 9.837629 10.529615
9.246078 9.392332 9.720308
8.156699 10.236717 9.656223
13.459202 9.752422 9.782467
13.004458 11.182353 10.852099
11.102613 9.504983 11.505136
10.941420 10.165401 8.619881
7.977105 12.301559 10.134003
12.751489 10.275840 10.357530
10.595302 9.834547 9.549423
8.749776 8.169982 9.961400
7.430560 8.248213 10.042617
7.022787 9.500761 9.861121
8.145776 11.597261 9.428178
