Molecule_POSCAR_03                      
   1.00000000000000     
    20.0000000000000000    0.0000000000000000    0.0000000000000000
     0.0000000000000000   20.0000000000000000    0.0000000000000000
     0.0000000000000000    0.0000000000000000   20.0000000000000000
   C    H    N    O 
     7    13     1     1
Direct
  0.6472904499999999  0.4586882500000016  0.5030877499999988
  0.5822669499999975  0.4968930000000000  0.5084002999999981
  0.5355976499999997  0.4796781499999980  0.4509025999999992
  0.4734624000000025  0.5221122499999993  0.4527187500000025
  0.4344105500000026  0.5128656999999990  0.5165343999999976
  0.3722443500000026  0.5562389500000009  0.5165279499999968
  0.3379817000000003  0.5438054999999977  0.5800667500000003
  0.6406288499999988  0.4042399000000003  0.5114025000000026
  0.6696754999999968  0.4662912499999976  0.4524287500000028
  0.6819442999999978  0.4818046999999979  0.5403548000000029
  0.5941144499999993  0.5506809999999973  0.5051753999999988
  0.5583234500000032  0.4833512499999983  0.5571319000000017
  0.5644828000000004  0.4903793499999978  0.4045384499999969
  0.5380030999999974  0.3917861999999985  0.4966271999999989
  0.4425007500000007  0.5096078500000019  0.4087971499999981
  0.4876645499999981  0.5750583499999991  0.4480579499999990
  0.4162716000000017  0.4600465999999983  0.5190359500000028
  0.4644140500000020  0.5219121499999986  0.5612631999999991
  0.3844668500000026  0.6100424500000017  0.5094369999999984
  0.3412809499999980  0.5379950499999993  0.4731059499999972
  0.3107836000000006  0.5347539999999995  0.6313803500000006
  0.5221912000000017  0.4117681000000033  0.4530249000000026
 
  0.00000000E+00  0.00000000E+00  0.00000000E+00
  0.00000000E+00  0.00000000E+00  0.00000000E+00
  0.00000000E+00  0.00000000E+00  0.00000000E+00
  0.00000000E+00  0.00000000E+00  0.00000000E+00
  0.00000000E+00  0.00000000E+00  0.00000000E+00
  0.00000000E+00  0.00000000E+00  0.00000000E+00
  0.00000000E+00  0.00000000E+00  0.00000000E+00
  0.00000000E+00  0.00000000E+00  0.00000000E+00
  0.00000000E+00  0.00000000E+00  0.00000000E+00
  0.00000000E+00  0.00000000E+00  0.00000000E+00
  0.00000000E+00  0.00000000E+00  0.00000000E+00
  0.00000000E+00  0.00000000E+00  0.00000000E+00
  0.00000000E+00  0.00000000E+00  0.00000000E+00
  0.00000000E+00  0.00000000E+00  0.00000000E+00
  0.00000000E+00  0.00000000E+00  0.00000000E+00
  0.00000000E+00  0.00000000E+00  0.00000000E+00
  0.00000000E+00  0.00000000E+00  0.00000000E+00
  0.00000000E+00  0.00000000E+00  0.00000000E+00
  0.00000000E+00  0.00000000E+00  0.00000000E+00
  0.00000000E+00  0.00000000E+00  0.00000000E+00
  0.00000000E+00  0.00000000E+00  0.00000000E+00
  0.00000000E+00  0.00000000E+00  0.00000000E+00
