 vasp.6.4.2 20Jul23 (build Mar 28 2025 16:44:38) complex                        
  
 executed on             LinuxIFC date 2026.02.17  14:42:24
 running   32 mpi-ranks, on    1 nodes
 distrk:  each k-point on   32 cores,    1 groups
 distr:  one band on NCORE=   4 cores,    8 groups


--------------------------------------------------------------------------------------------------------


 INCAR:
   SYSTEM = QM9_Benchmark_B3LYP_Gap_Dipole
   PREC = Accurate
   ENCUT = 500
   EDIFF = 1E-6
   ISMEAR = 0
   SIGMA = 0.05
   NELM = 100
   IBRION = -1
   NSW = 0
   LHFCALC = .TRUE.
   GGA = B3
   AEXX = 0.20
   AGGAX = 0.72
   AGGAC = 0.81
   ALDAC = 0.19
   ALGO = Damped
   TIME = 0.4
   LDIPOL = .TRUE.
   IDIPOL = 4
   DIPOL = 0.5 0.5 0.5
   LORBIT = 11
   NEDOS = 2000
   ISYM = 0
   LREAL = .FALSE.
   NCORE = 4

 POTCAR:    PAW_PBE C 08Apr2002                   
 POTCAR:    PAW_PBE H 15Jun2001                   
 POTCAR:    PAW_PBE N 08Apr2002                   
 POTCAR:    PAW_PBE O 08Apr2002                   
 POTCAR:    PAW_PBE C 08Apr2002                   
   VRHFIN =C: s2p2                                                                                  
   LEXCH  = PE                                                                                      
   EATOM  =   147.1560 eV,   10.8157 Ry                                                             
                                                                                                    
   TITEL  = PAW_PBE C 08Apr2002                                                                     
   LULTRA =        F    use ultrasoft PP ?                                                          
   IUNSCR =        1    unscreen: 0-lin 1-nonlin 2-no                                               
   RPACOR =    1.200    partial core radius                                                         
   POMASS =   12.011; ZVAL   =    4.000    mass and valenz                                          
   RCORE  =    1.500    outmost cutoff radius                                                       
   RWIGS  =    1.630; RWIGS  =    0.863    wigner-seitz radius (au A)                               
   ENMAX  =  400.000; ENMIN  =  300.000 eV                                                          
   ICORE  =        2    local potential                                                             
   LCOR   =        T    correct aug charges                                                         
   LPAW   =        T    paw PP                                                                      
   EAUG   =  644.873                                                                                
   DEXC   =    0.000                                                                                
   RMAX   =    1.529    core radius for proj-oper                                                   
   RAUG   =    1.300    factor for augmentation sphere                                              
   RDEP   =    1.501    radius for radial grids                                                     
   RDEPT  =    1.300    core radius for aug-charge                                                  
                                                                                                    
   Atomic configuration                                                                             
    4 entries                                                                                       
     n  l   j            E        occ.                                                              
     1  0  0.50      -273.3789   2.0000                                                             
     2  0  0.50       -13.7508   2.0000                                                             
     2  1  0.50        -5.2854   2.0000                                                             
     3  2  1.50        -5.4423   0.0000                                                             
   Description                                                                                      
     l       E           TYP  RCUT    TYP  RCUT                                                     
     0    -13.7508458     23  1.200                                                                 
     0     -8.2022199     23  1.200                                                                 
     1     -5.2854383     23  1.500                                                                 
     1     34.0145650     23  1.500                                                                 
     2     -5.4423304      7  1.500                                                                 
  local pseudopotential read in
  partial core-charges read in
  partial kinetic energy density read in
  atomic valenz-charges read in
  non local Contribution for L=           0  read in
    real space projection operators read in
  non local Contribution for L=           0  read in
    real space projection operators read in
  non local Contribution for L=           1  read in
    real space projection operators read in
  non local Contribution for L=           1  read in
    real space projection operators read in
    PAW grid and wavefunctions read in
 
   number of l-projection  operators is LMAX  =           4
   number of lm-projection operators is LMMAX =           8
 
 POTCAR:    PAW_PBE H 15Jun2001                   
   VRHFIN =H: ultrasoft test                                                                        
   LEXCH  = PE                                                                                      
   EATOM  =    12.4884 eV,    0.9179 Ry                                                             
                                                                                                    
   TITEL  = PAW_PBE H 15Jun2001                                                                     
   LULTRA =        F    use ultrasoft PP ?                                                          
   IUNSCR =        0    unscreen: 0-lin 1-nonlin 2-no                                               
   RPACOR =    0.000    partial core radius                                                         
   POMASS =    1.000; ZVAL   =    1.000    mass and valenz                                          
   RCORE  =    1.100    outmost cutoff radius                                                       
   RWIGS  =    0.700; RWIGS  =    0.370    wigner-seitz radius (au A)                               
   ENMAX  =  250.000; ENMIN  =  200.000 eV                                                          
   RCLOC  =    0.701    cutoff for local pot                                                        
   LCOR   =        T    correct aug charges                                                         
   LPAW   =        T    paw PP                                                                      
   EAUG   =  400.000                                                                                
   RMAX   =    1.123    core radius for proj-oper                                                   
   RAUG   =    1.200    factor for augmentation sphere                                              
   RDEP   =    1.112    radius for radial grids                                                     
   RDEPT  =    0.926    core radius for aug-charge                                                  
                                                                                                    
   Atomic configuration                                                                             
    2 entries                                                                                       
     n  l   j            E        occ.                                                              
     1  0  0.50        -6.4927   1.0000                                                             
     2  1  0.50        -3.4015   0.0000                                                             
   Description                                                                                      
     l       E           TYP  RCUT    TYP  RCUT                                                     
     0     -6.4927494     23  1.100                                                                 
     0      6.8029130     23  1.100                                                                 
     1     -4.0817478     23  1.100                                                                 
  local pseudopotential read in
  atomic valenz-charges read in
  non local Contribution for L=           0  read in
    real space projection operators read in
  non local Contribution for L=           0  read in
    real space projection operators read in
  non local Contribution for L=           1  read in
    real space projection operators read in
    PAW grid and wavefunctions read in
 
   number of l-projection  operators is LMAX  =           3
   number of lm-projection operators is LMMAX =           5
 
 POTCAR:    PAW_PBE N 08Apr2002                   
   VRHFIN =N: s2p3                                                                                  
   LEXCH  = PE                                                                                      
   EATOM  =   264.5486 eV,   19.4438 Ry                                                             
                                                                                                    
   TITEL  = PAW_PBE N 08Apr2002                                                                     
   LULTRA =        F    use ultrasoft PP ?                                                          
   IUNSCR =        1    unscreen: 0-lin 1-nonlin 2-no                                               
   RPACOR =    1.200    partial core radius                                                         
   POMASS =   14.001; ZVAL   =    5.000    mass and valenz                                          
   RCORE  =    1.500    outmost cutoff radius                                                       
   RWIGS  =    1.400; RWIGS  =    0.741    wigner-seitz radius (au A)                               
   ENMAX  =  400.000; ENMIN  =  300.000 eV                                                          
   ICORE  =        2    local potential                                                             
   LCOR   =        T    correct aug charges                                                         
   LPAW   =        T    paw PP                                                                      
   EAUG   =  627.112                                                                                
   DEXC   =    0.000                                                                                
   RMAX   =    1.529    core radius for proj-oper                                                   
   RAUG   =    1.300    factor for augmentation sphere                                              
   RDEP   =    1.514    radius for radial grids                                                     
   RDEPT  =    1.338    core radius for aug-charge                                                  
                                                                                                    
   Atomic configuration                                                                             
    4 entries                                                                                       
     n  l   j            E        occ.                                                              
     1  0  0.50      -384.7179   2.0000                                                             
     2  0  0.50       -18.5828   2.0000                                                             
     2  1  0.50        -7.0898   3.0000                                                             
     3  2  1.50        -6.8029   0.0000                                                             
   Description                                                                                      
     l       E           TYP  RCUT    TYP  RCUT                                                     
     0    -18.5828119     23  1.200                                                                 
     0    -13.5018863     23  1.200                                                                 
     1     -7.0897853     23  1.500                                                                 
     1      9.5240782     23  1.500                                                                 
     2     -6.8029130      7  1.500                                                                 
  local pseudopotential read in
  partial core-charges read in
  partial kinetic energy density read in
  atomic valenz-charges read in
  non local Contribution for L=           0  read in
    real space projection operators read in
  non local Contribution for L=           0  read in
    real space projection operators read in
  non local Contribution for L=           1  read in
    real space projection operators read in
  non local Contribution for L=           1  read in
    real space projection operators read in
    PAW grid and wavefunctions read in
 
   number of l-projection  operators is LMAX  =           4
   number of lm-projection operators is LMMAX =           8
 
 POTCAR:    PAW_PBE O 08Apr2002                   
   VRHFIN =O: s2p4                                                                                  
   LEXCH  = PE                                                                                      
   EATOM  =   432.3788 eV,   31.7789 Ry                                                             
                                                                                                    
   TITEL  = PAW_PBE O 08Apr2002                                                                     
   LULTRA =        F    use ultrasoft PP ?                                                          
   IUNSCR =        1    unscreen: 0-lin 1-nonlin 2-no                                               
   RPACOR =    1.200    partial core radius                                                         
   POMASS =   16.000; ZVAL   =    6.000    mass and valenz                                          
   RCORE  =    1.520    outmost cutoff radius                                                       
   RWIGS  =    1.550; RWIGS  =    0.820    wigner-seitz radius (au A)                               
   ENMAX  =  400.000; ENMIN  =  300.000 eV                                                          
   ICORE  =        2    local potential                                                             
   LCOR   =        T    correct aug charges                                                         
   LPAW   =        T    paw PP                                                                      
   EAUG   =  605.392                                                                                
   DEXC   =    0.000                                                                                
   RMAX   =    1.553    core radius for proj-oper                                                   
   RAUG   =    1.300    factor for augmentation sphere                                              
   RDEP   =    1.550    radius for radial grids                                                     
   RDEPT  =    1.329    core radius for aug-charge                                                  
                                                                                                    
   Atomic configuration                                                                             
    4 entries                                                                                       
     n  l   j            E        occ.                                                              
     1  0  0.50      -514.6923   2.0000                                                             
     2  0  0.50       -23.9615   2.0000                                                             
     2  1  0.50        -9.0305   4.0000                                                             
     3  2  1.50        -9.5241   0.0000                                                             
   Description                                                                                      
     l       E           TYP  RCUT    TYP  RCUT                                                     
     0    -23.9615318     23  1.200                                                                 
     0     -9.5240782     23  1.200                                                                 
     1     -9.0304911     23  1.520                                                                 
     1      8.1634956     23  1.520                                                                 
     2     -9.5240782      7  1.500                                                                 
  local pseudopotential read in
  partial core-charges read in
  partial kinetic energy density read in
  kinetic energy density of atom read in
  atomic valenz-charges read in
  non local Contribution for L=           0  read in
    real space projection operators read in
  non local Contribution for L=           0  read in
    real space projection operators read in
  non local Contribution for L=           1  read in
    real space projection operators read in
  non local Contribution for L=           1  read in
    real space projection operators read in
    PAW grid and wavefunctions read in
 
   number of l-projection  operators is LMAX  =           4
   number of lm-projection operators is LMMAX =           8
 
 -----------------------------------------------------------------------------
|                                                                             |
|               ----> ADVICE to this user running VASP <----                  |
|                                                                             |
|     You have a (more or less) 'large supercell' and for larger cells it     |
|     might be more efficient to use real-space projection operators.         |
|     Therefore, try LREAL= Auto in the INCAR file.                           |
|     Mind: For very accurate calculation, you might also keep the            |
|     reciprocal projection scheme (i.e. LREAL=.FALSE.).                      |
|                                                                             |
 -----------------------------------------------------------------------------

 -----------------------------------------------------------------------------
|                                                                             |
|               ----> ADVICE to this user running VASP <----                  |
|                                                                             |
|     You enforced a specific xc type in the INCAR file but a different       |
|     type was found in the POTCAR file.                                      |
|     I HOPE YOU KNOW WHAT YOU ARE DOING!                                     |
|                                                                             |
 -----------------------------------------------------------------------------

  PAW_PBE C 08Apr2002                   :
 energy of atom  1       EATOM= -147.1560
 kinetic energy error for atom=    0.0076 (will be added to EATOM!!)
  PAW_PBE H 15Jun2001                   :
 energy of atom  2       EATOM=  -12.4884
 kinetic energy error for atom=    0.0020 (will be added to EATOM!!)
  PAW_PBE N 08Apr2002                   :
 energy of atom  3       EATOM= -264.5486
 kinetic energy error for atom=    0.0138 (will be added to EATOM!!)
  PAW_PBE O 08Apr2002                   :
 energy of atom  4       EATOM= -432.3788
 kinetic energy error for atom=    0.0224 (will be added to EATOM!!)
 
 
 POSCAR: Molecule_POSCAR_03
  positions in cartesian coordinates
  No initial velocities read in
 exchange correlation table for  LEXCH =       11
   RHO(1)=    0.500       N(1)  =     2000
   RHO(2)=  100.500       N(2)  =     4000
 


--------------------------------------------------------------------------------------------------------


 ion  position               nearest neighbor table
   1  0.647  0.459  0.503-   8 1.11  10 1.12   9 1.12   2 1.51
   2  0.582  0.497  0.508-  11 1.10  12 1.12   1 1.51   3 1.52
   3  0.536  0.480  0.451-  13 1.11  22 1.39   4 1.51   2 1.52
   4  0.473  0.522  0.453-  16 1.10  15 1.10   3 1.51   5 1.51
   5  0.434  0.513  0.517-  18 1.09  17 1.12   4 1.51   6 1.52
   6  0.372  0.556  0.517-  19 1.11  20 1.13   7 1.47   5 1.52
   7  0.338  0.544  0.580-  21 1.18   6 1.47
   8  0.641  0.404  0.511-   1 1.11
   9  0.670  0.466  0.452-   1 1.12
  10  0.682  0.482  0.540-   1 1.12
  11  0.594  0.551  0.505-   2 1.10
  12  0.558  0.483  0.557-   2 1.12
  13  0.564  0.490  0.405-   3 1.11
  14  0.538  0.392  0.497-  22 1.01
  15  0.443  0.510  0.409-   4 1.10
  16  0.488  0.575  0.448-   4 1.10
  17  0.416  0.460  0.519-   5 1.12
  18  0.464  0.522  0.561-   5 1.09
  19  0.384  0.610  0.509-   6 1.11
  20  0.341  0.538  0.473-   6 1.13
  21  0.311  0.535  0.631-   7 1.18
  22  0.522  0.412  0.453-  14 1.01   3 1.39
 

IMPORTANT INFORMATION: All symmetrisations will be switched off!
NOSYMM: (Re-)initialisation of all symmetry stuff for point group C_1.


----------------------------------------------------------------------------------------

                                     Primitive cell                                     

  volume of cell :    8000.0000

  direct lattice vectors                    reciprocal lattice vectors
    20.000000000  0.000000000  0.000000000     0.050000000  0.000000000  0.000000000
     0.000000000 20.000000000  0.000000000     0.000000000  0.050000000  0.000000000
     0.000000000  0.000000000 20.000000000     0.000000000  0.000000000  0.050000000

  length of vectors
    20.000000000 20.000000000 20.000000000     0.050000000  0.050000000  0.050000000

  position of ions in fractional coordinates (direct lattice)
     0.647290450  0.458688250  0.503087750
     0.582266950  0.496893000  0.508400300
     0.535597650  0.479678150  0.450902600
     0.473462400  0.522112250  0.452718750
     0.434410550  0.512865700  0.516534400
     0.372244350  0.556238950  0.516527950
     0.337981700  0.543805500  0.580066750
     0.640628850  0.404239900  0.511402500
     0.669675500  0.466291250  0.452428750
     0.681944300  0.481804700  0.540354800
     0.594114450  0.550681000  0.505175400
     0.558323450  0.483351250  0.557131900
     0.564482800  0.490379350  0.404538450
     0.538003100  0.391786200  0.496627200
     0.442500750  0.509607850  0.408797150
     0.487664550  0.575058350  0.448057950
     0.416271600  0.460046600  0.519035950
     0.464414050  0.521912150  0.561263200
     0.384466850  0.610042450  0.509437000
     0.341280950  0.537995050  0.473105950
     0.310783600  0.534754000  0.631380350
     0.522191200  0.411768100  0.453024900

  ion indices of the primitive-cell ions
   primitive index   ion index
                 1           1
                 2           2
                 3           3
                 4           4
                 5           5
                 6           6
                 7           7
                 8           8
                 9           9
                10          10
                11          11
                12          12
                13          13
                14          14
                15          15
                16          16
                17          17
                18          18
                19          19
                20          20
                21          21
                22          22

----------------------------------------------------------------------------------------

 
 
 KPOINTS: Gamma-point only                        

Automatic generation of k-mesh.
 Grid dimensions read from file:
 generate k-points for:    1    1    1

 Generating k-lattice:

  Cartesian coordinates                     Fractional coordinates (reciprocal lattice)
     0.050000000  0.000000000  0.000000000     1.000000000  0.000000000  0.000000000
     0.000000000  0.050000000  0.000000000     0.000000000  1.000000000  0.000000000
     0.000000000  0.000000000  0.050000000     0.000000000  0.000000000  1.000000000

  Length of vectors
     0.050000000  0.050000000  0.050000000

  Shift w.r.t. Gamma in fractional coordinates (k-lattice)
     0.000000000  0.000000000  0.000000000

 
 Subroutine IBZKPT returns following result:
 ===========================================
 
 Found      1 irreducible k-points:
 
 Following reciprocal coordinates:
            Coordinates               Weight
  0.000000  0.000000  0.000000      1.000000
 
 Following cartesian coordinates:
            Coordinates               Weight
  0.000000  0.000000  0.000000      1.000000
 
 
 Subroutine IBZKPT_HF returns following result:
 ==============================================
 
 Found      1 k-points in 1st BZ
 the following      1 k-points will be used (e.g. in the exchange kernel)
 Following reciprocal coordinates:   # in IRBZ
  0.000000  0.000000  0.000000    1.00000000   1 t-inv F


--------------------------------------------------------------------------------------------------------




 Dimension of arrays:
   k-points           NKPTS =      1   k-points in BZ     NKDIM =      1   number of bands    NBANDS=     40
   number of dos      NEDOS =   2000   number of ions     NIONS =     22
   non local maximal  LDIM  =      4   non local SUM 2l+1 LMDIM =      8
   total plane-waves  NPLWV = ******
   max r-space proj   IRMAX =      1   max aug-charges    IRDMAX=   5672
   dimension x,y,z NGX =   150 NGY =  150 NGZ =  150
   dimension x,y,z NGXF=   300 NGYF=  300 NGZF=  300
   support grid    NGXF=   300 NGYF=  300 NGZF=  300
   ions per type =               7  13   1   1
   NGX,Y,Z   is equivalent  to a cutoff of  12.47, 12.47, 12.47 a.u.
   NGXF,Y,Z  is equivalent  to a cutoff of  24.94, 24.94, 24.94 a.u.

 SYSTEM =  QM9_Benchmark_B3LYP_Gap_Dipole          
 POSCAR =  Molecule_POSCAR_03                      

 Startparameter for this run:
   NWRITE =      2    write-flag & timer
   PREC   = accura    normal or accurate (medium, high low for compatibility)
   ISTART =      0    job   : 0-new  1-cont  2-samecut
   ICHARG =      2    charge: 1-file 2-atom 10-const
   ISPIN  =      1    spin polarized calculation?
   LNONCOLLINEAR =      F non collinear calculations
   LSORBIT =      F    spin-orbit coupling
   INIWAV =      1    electr: 0-lowe 1-rand  2-diag
   LASPH  =      F    aspherical Exc in radial PAW
 Electronic Relaxation 1
   ENCUT  =  500.0 eV  36.75 Ry    6.06 a.u.  36.46 36.46 36.46*2*pi/ulx,y,z
   ENINI  =  500.0     initial cutoff
   ENAUG  =  644.9 eV  augmentation charge cutoff
   NELM   =    100;   NELMIN=  2; NELMDL=  0     # of ELM steps 
   EDIFF  = 0.1E-05   stopping-criterion for ELM
   LREAL  =      F    real-space projection
   NLSPLINE    = F    spline interpolate recip. space projectors
   LCOMPAT=      F    compatible to vasp.4.4
   GGA_COMPAT  = T    GGA compatible to vasp.4.4-vasp.4.6
   LMAXPAW     = -100 max onsite density
   LMAXMIX     =    2 max onsite mixed and CHGCAR
   VOSKOWN=      0    Vosko Wilk Nusair interpolation
   ROPT   =    0.00000   0.00000   0.00000   0.00000
 Ionic relaxation
   EDIFFG = 0.1E-04   stopping-criterion for IOM
   NSW    =      0    number of steps for IOM
   NBLOCK =      1;   KBLOCK =      1    inner block; outer block 
   IBRION =     -1    ionic relax: 0-MD 1-quasi-New 2-CG
   NFREE  =      0    steps in history (QN), initial steepest desc. (CG)
   ISIF   =      0    stress and relaxation
   IWAVPR =     10    prediction:  0-non 1-charg 2-wave 3-comb
   ISYM   =      0    0-nonsym 1-usesym 2-fastsym
   LCORR  =      T    Harris-Foulkes like correction to forces

   POTIM  = 0.5000    time-step for ionic-motion
   TEIN   =    0.0    initial temperature
   TEBEG  =    0.0;   TEEND  =   0.0 temperature during run
   SMASS  =  -3.00    Nose mass-parameter (am)
   estimated Nose-frequenzy (Omega)   =  0.10E-29 period in steps = 0.13E+47 mass=  -0.914E-26a.u.
   SCALEE = 1.0000    scale energy and forces
   NPACO  =    256;   APACO  = 10.0  distance and # of slots for P.C.
   PSTRESS=    0.0 pullay stress

  Mass of Ions in am
   POMASS =  12.01  1.00 14.00 16.00
  Ionic Valenz
   ZVAL   =   4.00  1.00  5.00  6.00
  Atomic Wigner-Seitz radii
   RWIGS  =  -1.00 -1.00 -1.00 -1.00
  virtual crystal weights 
   VCA    =   1.00  1.00  1.00  1.00
   NELECT =      52.0000    total number of electrons
   NUPDOWN=      -1.0000    fix difference up-down

 DOS related values:
   EMIN   =  10.00;   EMAX   =-10.00  energy-range for DOS
   EFERMI =   0.00;   METHOD = LEGACY      
   ISMEAR =     0;   SIGMA  =   0.05  broadening in eV -4-tet -1-fermi 0-gaus

 Electronic relaxation 2 (details)
   IALGO  =     53    algorithm
   LDIAG  =      T    sub-space diagonalisation (order eigenvalues)
   LSUBROT=      F    optimize rotation matrix (better conditioning)
   TURBO    =      0    0=normal 1=particle mesh
   IRESTART =      0    0=no restart 2=restart with 2 vectors
   NREBOOT  =      0    no. of reboots
   NMIN     =      0    reboot dimension
   EREF     =   0.00    reference energy to select bands
   IMIX   =      4    mixing-type and parameters
     AMIX     =   0.40;   BMIX     =  1.00
     AMIX_MAG =   1.60;   BMIX_MAG =  1.00
     AMIN     =   0.10
     WC   =   100.;   INIMIX=   1;  MIXPRE=   1;  MAXMIX= -45

 Intra band minimization:
   WEIMIN = 0.0000     energy-eigenvalue tresh-hold
   EBREAK =  0.62E-08  absolut break condition
   DEPER  =   0.30     relativ break condition  

   TIME   =   0.40     timestep for ELM

  volume/ion in A,a.u.               =     363.64      2453.94
  Fermi-wavevector in a.u.,A,eV,Ry     =   0.305524  0.577357  1.270038  0.093345
  Thomas-Fermi vector in A             =   1.178628
 
 Write flags
   LWAVE        =      T    write WAVECAR
   LDOWNSAMPLE  =      F    k-point downsampling of WAVECAR
   LCHARG       =      T    write CHGCAR
   LVTOT        =      F    write LOCPOT, total local potential
   LVHAR        =      F    write LOCPOT, Hartree potential only
   LELF         =      F    write electronic localiz. function (ELF)
   LORBIT       =     11    0 simple, 1 ext, 2 COOP (PROOUT), +10 PAW based schemes


 Dipole corrections
   LMONO  =      F    monopole corrections only (constant potential shift)
   LDIPOL =      T    correct potential (dipole corrections)
   IDIPOL =      4    1-x, 2-y, 3-z, 4-all directions 
   EPSILON=  1.0000000 bulk dielectric constant

 Exchange correlation treatment:
   GGA     =    B3    GGA type
   LEXCH   =    11    internal setting for exchange type
   LIBXC   =     F    Libxc                    
   VOSKOWN =     0    Vosko Wilk Nusair interpolation
   EXXOEP  =     0    0=HF, 1=EXX-LHF (local Hartree Fock) 2=EXX OEP
   LHFCALC =     T    Hartree Fock is set to
   LSYMGRAD=     F    symmetrize gradient (conserves proper symmetry)
   PRECFOCK=normal    Normal, Fast or Accurate (Low or Medium for compatibility)
   LRHFCALC=     F    long range Hartree Fock
   LRSCOR  =     F    long range correlation only (use DFT for short range part)
   LTHOMAS =     F    Thomas Fermi screening in HF
   LMODELHF=     F    short range full HF, long range fraction AEXX
   FOCKCORR=     1    mode to apply convergence corrections
   LFOCKACE=     T    use Adeptively-Compressed-Exchange operator
   ENCUT4O =  -1.0   cutoff for four orbital integrals eV
   LMAXFOCK=     4    L truncation for augmentation on plane wave grid
   LMAXFOCKAE=  -1    L truncation for all-electron charge restoration on plane wave grid
   NMAXFOCKAE=   1    number of basis functions for all-electron charge restoration
   LFOCKAEDFT=     F  apply the AE augmentation even for DFT
   NKREDX  =     1    reduce k-point grid by
   NKREDY  =     1    reduce k-point grid by
   NKREDZ  =     1    reduce k-point grid by
   SHIFTRED=     F    shift reduced grid of Gamma
   HFKIDENT=     F    idential grid for each k-point
   ODDONLY =     F    use only odd q-grid points
   EVENONLY=     F    use only even q-grid points
   HFALPHA =   -1.0000 decay constant for conv. correction
   MCALPHA =    0.0000 extent of test-charge in conv. correction in multipole expansion
   AEXX    =    0.2000 exact exchange contribution
   HFSCREEN=    0.0000 screening length (either q_TF or 0.3 A-1)
   HFSCREENC=   0.0000 screening length for correlation (either q_TF or 0.3 A-1)
   HFRCUT  =    0.0000 spherical cutoff for potential kernel
   ALDAX   =    0.8000 LDA exchange part
   AGGAX   =    0.7200 GGA exchange part
   ALDAC   =    0.1900 LDA correlation
   AGGAC   =    0.8100 GGA correlation
   ENCUTFOCK=  -1.0 apply spherical cutoff to Coloumb kernel
   NBANDSGWLOW=     1    first orbital included in HF term
   NBLOCK_FOCK=    64    blocking factor in FOCK_ACC

 Linear response parameters
   LEPSILON=     F    determine dielectric tensor
   LRPA    =     F    only Hartree local field effects (RPA)
   LNABLA  =     F    use nabla operator in PAW spheres
   LVEL    =     F    velocity operator in full k-point grid
   CSHIFT  =0.1000    complex shift for real part using Kramers Kronig
   OMEGAMAX=  -1.0    maximum frequency
   DEG_THRESHOLD= 0.2000000E-02 threshold for treating states as degnerate
   RTIME   =   -0.100 relaxation time in fs
  (WPLASMAI=    0.000 imaginary part of plasma frequency in eV, 0.658/RTIME)
   DFIELD  = 0.0000000 0.0000000 0.0000000 field for delta impulse in time
 
  Optional k-point grid parameters
   LKPOINTS_OPT  =     F    use optional k-point grid
   KPOINTS_OPT_MODE=     1    mode for optional k-point grid
 
 Orbital magnetization related:
   ORBITALMAG=     F  switch on orbital magnetization
   LCHIMAG   =     F  perturbation theory with respect to B field
   DQ        =  0.001000  dq finite difference perturbation B field
   LLRAUG    =     F  two centre corrections for induced B field
   LBONE     =     F  B-component reconstruction in AE one-centre
   LVGVCALC  =     T  calculate vGv susceptibility
   LVGVAPPL  =     F  apply vGv susceptibility instead of pGv for G=0

 Random number generation:
   RANDOM_GENERATOR = DEFAULT
   PCG_SEED         = not used


--------------------------------------------------------------------------------------------------------


 Static calculation
 charge density and potential will be updated during run
 non-spin polarized calculation
 Conjugate gradient for all bands (Freysoldt, et al. PRB 79, 241103 (2009))
 perform sub-space diagonalisation
    before iterative eigenvector-optimisation
 modified Broyden-mixing scheme, WC =      100.0
 initial mixing is a Kerker type mixing with AMIX =  0.4000 and BMIX =      1.0000
 Hartree-type preconditioning will be used
 using additional bands           14
 reciprocal scheme for non local part
 use partial core corrections
 no Harris-corrections to forces 
 use gradient corrections 
 use of overlap-Matrix (Vanderbilt PP)
 Gauss-broadening in eV      SIGMA  =   0.05


--------------------------------------------------------------------------------------------------------


  energy-cutoff  :      500.00
  volume of cell :     8000.00
      direct lattice vectors                 reciprocal lattice vectors
    20.000000000  0.000000000  0.000000000     0.050000000  0.000000000  0.000000000
     0.000000000 20.000000000  0.000000000     0.000000000  0.050000000  0.000000000
     0.000000000  0.000000000 20.000000000     0.000000000  0.000000000  0.050000000

  length of vectors
    20.000000000 20.000000000 20.000000000     0.050000000  0.050000000  0.050000000


 
 k-points in units of 2pi/SCALE and weight: Gamma-point only                        
   0.00000000  0.00000000  0.00000000       1.000
 
 k-points in reciprocal lattice and weights: Gamma-point only                        
   0.00000000  0.00000000  0.00000000       1.000
 
 position of ions in fractional coordinates (direct lattice) 
   0.64729045  0.45868825  0.50308775
   0.58226695  0.49689300  0.50840030
   0.53559765  0.47967815  0.45090260
   0.47346240  0.52211225  0.45271875
   0.43441055  0.51286570  0.51653440
   0.37224435  0.55623895  0.51652795
   0.33798170  0.54380550  0.58006675
   0.64062885  0.40423990  0.51140250
   0.66967550  0.46629125  0.45242875
   0.68194430  0.48180470  0.54035480
   0.59411445  0.55068100  0.50517540
   0.55832345  0.48335125  0.55713190
   0.56448280  0.49037935  0.40453845
   0.53800310  0.39178620  0.49662720
   0.44250075  0.50960785  0.40879715
   0.48766455  0.57505835  0.44805795
   0.41627160  0.46004660  0.51903595
   0.46441405  0.52191215  0.56126320
   0.38446685  0.61004245  0.50943700
   0.34128095  0.53799505  0.47310595
   0.31078360  0.53475400  0.63138035
   0.52219120  0.41176810  0.45302490
 
 position of ions in cartesian coordinates  (Angst):
  12.94580900  9.17376500 10.06175500
  11.64533900  9.93786000 10.16800600
  10.71195300  9.59356300  9.01805200
   9.46924800 10.44224500  9.05437500
   8.68821100 10.25731400 10.33068800
   7.44488700 11.12477900 10.33055900
   6.75963400 10.87611000 11.60133500
  12.81257700  8.08479800 10.22805000
  13.39351000  9.32582500  9.04857500
  13.63888600  9.63609400 10.80709600
  11.88228900 11.01362000 10.10350800
  11.16646900  9.66702500 11.14263800
  11.28965600  9.80758700  8.09076900
  10.76006200  7.83572400  9.93254400
   8.85001500 10.19215700  8.17594300
   9.75329100 11.50116700  8.96115900
   8.32543200  9.20093200 10.38071900
   9.28828100 10.43824300 11.22526400
   7.68933700 12.20084900 10.18874000
   6.82561900 10.75990100  9.46211900
   6.21567200 10.69508000 12.62760700
  10.44382400  8.23536200  9.06049800
 


--------------------------------------------------------------------------------------------------------


 k-point   1 :   0.0000 0.0000 0.0000  plane waves:  203269

 maximum and minimum number of plane-waves per node :     50840    50799

 maximum number of plane-waves:    203269
 maximum index in each direction: 
   IXMAX=   36   IYMAX=   36   IZMAX=   36
   IXMIN=  -36   IYMIN=  -36   IZMIN=  -36


 parallel 3D FFT for wavefunctions:
    minimum data exchange during FFTs selected (reduces bandwidth)
 parallel 3D FFT for charge:
    minimum data exchange during FFTs selected (reduces bandwidth)


 FFT grid for exact exchange (Hartree Fock) 
  NGX =112; NGY =112; NGZ =112

 
 Radii for the augmentation spheres in the non-local exchange
 for species   1 augmentation radius   0.874 (default was   0.699)
       energy cutoff for augmentation   2000.0
 for species   2 augmentation radius   0.650 (default was   0.520)
       energy cutoff for augmentation   2000.0
 for species   3 augmentation radius   0.886 (default was   0.709)
       energy cutoff for augmentation   2000.0
 for species   4 augmentation radius   0.902 (default was   0.722)
       energy cutoff for augmentation   2000.0

 real space projection operators:
  total allocation   :        500.62 KBytes
  max/ min on nodes  :        129.02        121.85

 Maximum index for augmentation-charges in exchange          134
  SETUP_FOCK is finished

 total amount of memory used by VASP MPI-rank0   248652. kBytes
=======================================================================

   base      :      30000. kBytes
   nonl-proj :      30905. kBytes
   fftplans  :      75720. kBytes
   grid      :      99427. kBytes
   one-center:         18. kBytes
   HF        :         13. kBytes
   nonlr-proj:        362. kBytes
   wavefun   :      12207. kBytes
 
     INWAV:  cpu time      0.0000: real time      0.0000
 Broyden mixing: mesh for mixing (old mesh)
   NGX = 73   NGY = 73   NGZ = 73
  (NGX  =300   NGY  =300   NGZ  =300)
  gives a total of 389017 points

 initial charge density was supplied:
 charge density of overlapping atoms calculated
 number of electron      52.0000000 magnetization 
 charge density for first step will be calculated from the start-wavefunctions


--------------------------------------------------------------------------------------------------------


 Maximum index for augmentation-charges          344 (set IRDMAX)


--------------------------------------------------------------------------------------------------------


    FEWALD:  cpu time      0.0002: real time      0.0002


--------------------------------------- Ionic step        1  -------------------------------------------




--------------------------------------- Iteration      1(   1)  ---------------------------------------


    POTLOK:  cpu time      0.4071: real time      0.4103
    SETDIJ:  cpu time      0.0023: real time      0.0023
    TRIAL :  cpu time      0.9362: real time      0.9443
    CORREC:  cpu time      0.0018: real time      0.0020
    --------------------------------------------
      LOOP:  cpu time      1.3499: real time      1.3875

 eigenvalue-minimisations  :    88
 total energy-change (2. order) : 0.7123894E+03  (-0.6902926E+03)
 number of electron      52.0000000 magnetization 
 augmentation part       52.0000000 magnetization 

 DIPCOR: dipole corrections for dipol
 direction  1 min pos     1, direction  2 min pos     1, direction  3 min pos     1,
 dipolmoment           0.000044     -0.000011     -0.000024 electrons x Angstroem
 Tr[quadrupol]        41.397745

 energy correction for charged system         0.000000 eV
 dipol+quadrupol energy correction           -0.000000 eV
 added-field ion interaction          0.000008 eV  (added to PSCEN)


 Free energy of the ion-electron system (eV)
  ---------------------------------------------------
  alpha Z        PSCENC =         1.43088662
  Ewald energy   TEWEN  =      3924.80414089
  -Hartree energ DENC   =     -5224.99270357
  -exchange      EXHF   =         0.00000000
  -V(xc)+E(xc)   XCENC  =       169.41206846
  PAW double counting   =      1338.87888983    -1518.00738976
  entropy T*S    EENTRO =        -0.00005354
  eigenvalues    EBANDS =       147.31298516
  atomic energy  EATOM  =      1873.55058303
  ---------------------------------------------------
  free energy    TOTEN  =       712.38940713 eV

  energy without entropy =      712.38946067  energy(sigma->0) =      712.38943390
  exchange ACFDT corr.  =         0.00000000  see jH, gK, PRB 81, 115126


--------------------------------------------------------------------------------------------------------




--------------------------------------- Iteration      1(   2)  ---------------------------------------


    TRIAL :  cpu time      1.4644: real time      1.5105
    CORREC:  cpu time      0.0008: real time      0.0010
    --------------------------------------------
      LOOP:  cpu time      1.4654: real time      1.5116

 eigenvalue-minimisations  :   160
 total energy-change (2. order) :-0.2379749E+03  (-0.2242626E+03)
 number of electron      52.0000000 magnetization 
 augmentation part       52.0000000 magnetization 

 DIPCOR: dipole corrections for dipol
 direction  1 min pos     1, direction  2 min pos     1, direction  3 min pos     1,
 dipolmoment           0.000044     -0.000011     -0.000024 electrons x Angstroem
 Tr[quadrupol]        41.397745

 energy correction for charged system         0.000000 eV
 dipol+quadrupol energy correction           -0.000000 eV
 added-field ion interaction          0.000008 eV  (added to PSCEN)


 Free energy of the ion-electron system (eV)
  ---------------------------------------------------
  alpha Z        PSCENC =         1.43088662
  Ewald energy   TEWEN  =      3924.80414089
  -Hartree energ DENC   =     -5224.99270357
  -exchange      EXHF   =         0.00000000
  -V(xc)+E(xc)   XCENC  =       169.41206846
  PAW double counting   =      1338.87888983    -1518.00738976
  entropy T*S    EENTRO =        -0.00798494
  eigenvalues    EBANDS =       -90.65393642
  atomic energy  EATOM  =      1873.55058303
  ---------------------------------------------------
  free energy    TOTEN  =       474.41455415 eV

  energy without entropy =      474.42253909  energy(sigma->0) =      474.41854662
  exchange ACFDT corr.  =         0.00000000  see jH, gK, PRB 81, 115126


--------------------------------------------------------------------------------------------------------




--------------------------------------- Iteration      1(   3)  ---------------------------------------


    TRIAL :  cpu time      1.4621: real time      1.4735
    CORREC:  cpu time      0.0009: real time      0.0011
    --------------------------------------------
      LOOP:  cpu time      1.4632: real time      1.4747

 eigenvalue-minimisations  :   160
 total energy-change (2. order) :-0.2984467E+03  (-0.2801582E+03)
 number of electron      52.0000000 magnetization 
 augmentation part       52.0000000 magnetization 

 DIPCOR: dipole corrections for dipol
 direction  1 min pos     1, direction  2 min pos     1, direction  3 min pos     1,
 dipolmoment           0.000044     -0.000011     -0.000024 electrons x Angstroem
 Tr[quadrupol]        41.397745

 energy correction for charged system         0.000000 eV
 dipol+quadrupol energy correction           -0.000000 eV
 added-field ion interaction          0.000008 eV  (added to PSCEN)


 Free energy of the ion-electron system (eV)
  ---------------------------------------------------
  alpha Z        PSCENC =         1.43088662
  Ewald energy   TEWEN  =      3924.80414089
  -Hartree energ DENC   =     -5224.99270357
  -exchange      EXHF   =         0.00000000
  -V(xc)+E(xc)   XCENC  =       169.41206846
  PAW double counting   =      1338.87888983    -1518.00738976
  entropy T*S    EENTRO =        -0.03721788
  eigenvalues    EBANDS =      -389.07141164
  atomic energy  EATOM  =      1873.55058303
  ---------------------------------------------------
  free energy    TOTEN  =       175.96784600 eV

  energy without entropy =      176.00506387  energy(sigma->0) =      175.98645493
  exchange ACFDT corr.  =         0.00000000  see jH, gK, PRB 81, 115126


--------------------------------------------------------------------------------------------------------




--------------------------------------- Iteration      1(   4)  ---------------------------------------


    TRIAL :  cpu time      1.4676: real time      1.4801
    CORREC:  cpu time      0.0009: real time      0.0009
    --------------------------------------------
      LOOP:  cpu time      1.4686: real time      1.4811

 eigenvalue-minimisations  :   160
 total energy-change (2. order) :-0.2487191E+03  (-0.2345228E+03)
 number of electron      52.0000000 magnetization 
 augmentation part       52.0000000 magnetization 

 DIPCOR: dipole corrections for dipol
 direction  1 min pos     1, direction  2 min pos     1, direction  3 min pos     1,
 dipolmoment           0.000044     -0.000011     -0.000024 electrons x Angstroem
 Tr[quadrupol]        41.397745

 energy correction for charged system         0.000000 eV
 dipol+quadrupol energy correction           -0.000000 eV
 added-field ion interaction          0.000008 eV  (added to PSCEN)


 Free energy of the ion-electron system (eV)
  ---------------------------------------------------
  alpha Z        PSCENC =         1.43088662
  Ewald energy   TEWEN  =      3924.80414089
  -Hartree energ DENC   =     -5224.99270357
  -exchange      EXHF   =         0.00000000
  -V(xc)+E(xc)   XCENC  =       169.41206846
  PAW double counting   =      1338.87888983    -1518.00738976
  entropy T*S    EENTRO =        -0.00286402
  eigenvalues    EBANDS =      -637.82491002
  atomic energy  EATOM  =      1873.55058303
  ---------------------------------------------------
  free energy    TOTEN  =       -72.75129852 eV

  energy without entropy =      -72.74843451  energy(sigma->0) =      -72.74986651
  exchange ACFDT corr.  =         0.00000000  see jH, gK, PRB 81, 115126


--------------------------------------------------------------------------------------------------------




--------------------------------------- Iteration      1(   5)  ---------------------------------------


    POTLOK:  cpu time      0.8068: real time      0.8114
    SETDIJ:  cpu time      0.0022: real time      0.0022
    TRIAL :  cpu time      6.4763: real time      6.5273
    CORREC:  cpu time      0.0005: real time      0.0005
    CHARGE:  cpu time      0.1153: real time      0.1165
    --------------------------------------------
      LOOP:  cpu time      7.4013: real time      7.4582

 eigenvalue-minimisations  :   160
 total energy-change (2. order) : 0.2845434E+02  (-0.1478469E+03)
 number of electron      52.0000005 magnetization 
 augmentation part        1.8905629 magnetization 

 DIPCOR: dipole corrections for dipol
 direction  1 min pos     1, direction  2 min pos     1, direction  3 min pos     1,
 dipolmoment           0.000044     -0.000011     -0.000024 electrons x Angstroem
 Tr[quadrupol]        41.397745

 energy correction for charged system         0.000000 eV
 dipol+quadrupol energy correction           -0.000000 eV
 added-field ion interaction          0.000008 eV  (added to PSCEN)


 Free energy of the ion-electron system (eV)
  ---------------------------------------------------
  alpha Z        PSCENC =         1.43088662
  Ewald energy   TEWEN  =      3924.80414089
  -Hartree energ DENC   =     -5224.99270357
  -exchange      EXHF   =        75.92982116
  -V(xc)+E(xc)   XCENC  =       135.14792282
  PAW double counting   =      1366.38636055    -1374.74202627
  entropy T*S    EENTRO =        -0.00679351
  eigenvalues    EBANDS =      -821.80515247
  atomic energy  EATOM  =      1873.55058303
  ---------------------------------------------------
  free energy    TOTEN  =       -44.29696073 eV

  energy without entropy =      -44.29016723  energy(sigma->0) =      -44.29356398
  exchange ACFDT corr.  =        -0.00611268  see jH, gK, PRB 81, 115126


--------------------------------------------------------------------------------------------------------




--------------------------------------- Iteration      1(   6)  ---------------------------------------


    POTLOK:  cpu time      1.5618: real time      1.5688
    SETDIJ:  cpu time      0.0041: real time      0.0041
    TRIAL :  cpu time      5.3905: real time      5.4286
    CORREC:  cpu time      0.0003: real time      0.0003
    CHARGE:  cpu time      0.1103: real time      0.1113
    --------------------------------------------
      LOOP:  cpu time      7.0676: real time      7.1136

 eigenvalue-minimisations  :     0
 total energy-change (2. order) : 0.2441348E+02  (-0.2752603E+03)
 number of electron      52.0000005 magnetization 
 augmentation part        1.8195993 magnetization 

 DIPCOR: dipole corrections for dipol
 direction  1 min pos     1, direction  2 min pos     1, direction  3 min pos     1,
 dipolmoment          -0.913636     -0.260127      0.113375 electrons x Angstroem
 Tr[quadrupol]       459.352678

 energy correction for charged system         0.000000 eV
 dipol+quadrupol energy correction           -0.003451 eV
 added-field ion interaction         -0.147246 eV  (added to PSCEN)


 Free energy of the ion-electron system (eV)
  ---------------------------------------------------
  alpha Z        PSCENC =         1.28018209
  Ewald energy   TEWEN  =      3924.80414089
  -Hartree energ DENC   =     -4616.66581170
  -exchange      EXHF   =       100.94502849
  -V(xc)+E(xc)   XCENC  =       134.29752394
  PAW double counting   =      3693.80396427    -3704.66917402
  entropy T*S    EENTRO =        -0.00000000
  eigenvalues    EBANDS =     -1427.22312091
  atomic energy  EATOM  =      1873.55058303
  ---------------------------------------------------
  free energy    TOTEN  =       -19.88347743 eV

  energy without entropy =      -19.88347743  energy(sigma->0) =      -19.88347743
  exchange ACFDT corr.  =        -0.01678750  see jH, gK, PRB 81, 115126


--------------------------------------------------------------------------------------------------------




--------------------------------------- Iteration      1(   7)  ---------------------------------------


    POTLOK:  cpu time      1.4371: real time      1.4436
    SETDIJ:  cpu time      0.0032: real time      0.0033
    TRIAL :  cpu time      5.1573: real time      5.1922
    CORREC:  cpu time      0.0002: real time      0.0002
    CHARGE:  cpu time      0.1109: real time      0.1118
    --------------------------------------------
      LOOP:  cpu time      6.7090: real time      6.7512

 eigenvalue-minimisations  :     0
 total energy-change (2. order) :-0.8418449E+02  (-0.4200702E+02)
 number of electron      52.0000005 magnetization 
 augmentation part        1.6920069 magnetization 

 DIPCOR: dipole corrections for dipol
 direction  1 min pos     1, direction  2 min pos     1, direction  3 min pos     1,
 dipolmoment          -1.408688     -0.480662      0.548480 electrons x Angstroem
 Tr[quadrupol]       186.189257

 energy correction for charged system         0.000000 eV
 dipol+quadrupol energy correction           -0.009486 eV
 added-field ion interaction         -0.249271 eV  (added to PSCEN)


 Free energy of the ion-electron system (eV)
  ---------------------------------------------------
  alpha Z        PSCENC =         1.17212191
  Ewald energy   TEWEN  =      3924.80414089
  -Hartree energ DENC   =     -5170.32160886
  -exchange      EXHF   =       107.71421044
  -V(xc)+E(xc)   XCENC  =       140.61619045
  PAW double counting   =      3974.06323457    -3984.46153124
  entropy T*S    EENTRO =        -0.00000000
  eigenvalues    EBANDS =      -971.20530826
  atomic energy  EATOM  =      1873.55058303
  ---------------------------------------------------
  free energy    TOTEN  =      -104.06796706 eV

  energy without entropy =     -104.06796706  energy(sigma->0) =     -104.06796706
  exchange ACFDT corr.  =        -0.00000000  see jH, gK, PRB 81, 115126


--------------------------------------------------------------------------------------------------------




--------------------------------------- Iteration      1(   8)  ---------------------------------------


    POTLOK:  cpu time      1.0298: real time      1.0337
    SETDIJ:  cpu time      0.0022: real time      0.0022
    TRIAL :  cpu time      5.1448: real time      5.1749
    CORREC:  cpu time      0.0001: real time      0.0003
    CHARGE:  cpu time      0.1106: real time      0.1112
    --------------------------------------------
      LOOP:  cpu time      6.2876: real time      6.3224

 eigenvalue-minimisations  :     0
 total energy-change (2. order) :-0.2169437E+02  (-0.2392417E+02)
 number of electron      52.0000005 magnetization 
 augmentation part        1.7139498 magnetization 

 DIPCOR: dipole corrections for dipol
 direction  1 min pos     1, direction  2 min pos     1, direction  3 min pos     1,
 dipolmoment          -1.010129     -0.250743      0.296101 electrons x Angstroem
 Tr[quadrupol]       103.308552

 energy correction for charged system         0.000000 eV
 dipol+quadrupol energy correction           -0.004414 eV
 added-field ion interaction         -0.171953 eV  (added to PSCEN)


 Free energy of the ion-electron system (eV)
  ---------------------------------------------------
  alpha Z        PSCENC =         1.25451123
  Ewald energy   TEWEN  =      3924.80414089
  -Hartree energ DENC   =     -5301.75666552
  -exchange      EXHF   =       108.77400587
  -V(xc)+E(xc)   XCENC  =       140.94026200
  PAW double counting   =      3989.76143952    -3999.44934205
  entropy T*S    EENTRO =        -0.00000000
  eigenvalues    EBANDS =      -863.64127000
  atomic energy  EATOM  =      1873.55058303
  ---------------------------------------------------
  free energy    TOTEN  =      -125.76233503 eV

  energy without entropy =     -125.76233503  energy(sigma->0) =     -125.76233503
  exchange ACFDT corr.  =        -0.00000000  see jH, gK, PRB 81, 115126


--------------------------------------------------------------------------------------------------------




--------------------------------------- Iteration      1(   9)  ---------------------------------------


    POTLOK:  cpu time      0.8684: real time      0.8716
    SETDIJ:  cpu time      0.0021: real time      0.0021
    TRIAL :  cpu time      5.1826: real time      5.2134
    CORREC:  cpu time      0.0002: real time      0.0002
    CHARGE:  cpu time      0.1106: real time      0.1115
    --------------------------------------------
      LOOP:  cpu time      6.1640: real time      6.1990

 eigenvalue-minimisations  :     0
 total energy-change (2. order) :-0.1231602E+02  (-0.6328627E+01)
 number of electron      52.0000005 magnetization 
 augmentation part        1.7446050 magnetization 

 DIPCOR: dipole corrections for dipol
 direction  1 min pos     1, direction  2 min pos     1, direction  3 min pos     1,
 dipolmoment          -0.880257     -0.203076      0.426891 electrons x Angstroem
 Tr[quadrupol]        45.180936

 energy correction for charged system         0.000000 eV
 dipol+quadrupol energy correction           -0.003764 eV
 added-field ion interaction         -0.159187 eV  (added to PSCEN)


 Free energy of the ion-electron system (eV)
  ---------------------------------------------------
  alpha Z        PSCENC =         1.26792852
  Ewald energy   TEWEN  =      3924.80414089
  -Hartree energ DENC   =     -5432.32605050
  -exchange      EXHF   =       111.51374328
  -V(xc)+E(xc)   XCENC  =       143.37370855
  PAW double counting   =      4022.55391960    -4032.14464636
  entropy T*S    EENTRO =        -0.00000000
  eigenvalues    EBANDS =      -750.67168575
  atomic energy  EATOM  =      1873.55058303
  ---------------------------------------------------
  free energy    TOTEN  =      -138.07835874 eV

  energy without entropy =     -138.07835874  energy(sigma->0) =     -138.07835874
  exchange ACFDT corr.  =        -0.00000000  see jH, gK, PRB 81, 115126


--------------------------------------------------------------------------------------------------------




--------------------------------------- Iteration      1(  10)  ---------------------------------------


    POTLOK:  cpu time      0.8635: real time      0.8666
    SETDIJ:  cpu time      0.0022: real time      0.0022
    TRIAL :  cpu time      5.1674: real time      5.2009
    CORREC:  cpu time      0.0003: real time      0.0003
    CHARGE:  cpu time      0.1106: real time      0.1114
    --------------------------------------------
      LOOP:  cpu time      6.1440: real time      6.1815

 eigenvalue-minimisations  :     0
 total energy-change (2. order) :-0.3275594E+01  (-0.2868367E+01)
 number of electron      52.0000005 magnetization 
 augmentation part        1.7696061 magnetization 

 DIPCOR: dipole corrections for dipol
 direction  1 min pos     1, direction  2 min pos     1, direction  3 min pos     1,
 dipolmoment          -0.805705     -0.215629      0.532738 electrons x Angstroem
 Tr[quadrupol]        41.122825

 energy correction for charged system         0.000000 eV
 dipol+quadrupol energy correction           -0.003692 eV
 added-field ion interaction         -0.154149 eV  (added to PSCEN)


 Free energy of the ion-electron system (eV)
  ---------------------------------------------------
  alpha Z        PSCENC =         1.27303795
  Ewald energy   TEWEN  =      3924.80414089
  -Hartree energ DENC   =     -5445.57792953
  -exchange      EXHF   =       112.40263257
  -V(xc)+E(xc)   XCENC  =       144.20330463
  PAW double counting   =      4000.24497814    -4009.88232771
  entropy T*S    EENTRO =        -0.00000000
  eigenvalues    EBANDS =      -742.37237296
  atomic energy  EATOM  =      1873.55058303
  ---------------------------------------------------
  free energy    TOTEN  =      -141.35395298 eV

  energy without entropy =     -141.35395298  energy(sigma->0) =     -141.35395298
  exchange ACFDT corr.  =        -0.00000000  see jH, gK, PRB 81, 115126


--------------------------------------------------------------------------------------------------------




--------------------------------------- Iteration      1(  11)  ---------------------------------------


    POTLOK:  cpu time      0.8620: real time      0.8654
    SETDIJ:  cpu time      0.0021: real time      0.0021
    TRIAL :  cpu time      5.1652: real time      5.1951
    CORREC:  cpu time      0.0003: real time      0.0003
    CHARGE:  cpu time      0.1105: real time      0.1114
    --------------------------------------------
      LOOP:  cpu time      6.1402: real time      6.1745

 eigenvalue-minimisations  :     0
 total energy-change (2. order) :-0.1797855E+01  (-0.1376285E+01)
 number of electron      52.0000005 magnetization 
 augmentation part        1.7839448 magnetization 

 DIPCOR: dipole corrections for dipol
 direction  1 min pos     1, direction  2 min pos     1, direction  3 min pos     1,
 dipolmoment          -0.769357     -0.223931      0.566999 electrons x Angstroem
 Tr[quadrupol]        37.775869

 energy correction for charged system         0.000000 eV
 dipol+quadrupol energy correction           -0.003632 eV
 added-field ion interaction         -0.150742 eV  (added to PSCEN)


 Free energy of the ion-electron system (eV)
  ---------------------------------------------------
  alpha Z        PSCENC =         1.27650431
  Ewald energy   TEWEN  =      3924.80414089
  -Hartree energ DENC   =     -5455.94931656
  -exchange      EXHF   =       112.88237881
  -V(xc)+E(xc)   XCENC  =       144.66489907
  PAW double counting   =      3986.82285673    -3996.54421539
  entropy T*S    EENTRO =        -0.00000000
  eigenvalues    EBANDS =      -734.65963935
  atomic energy  EATOM  =      1873.55058303
  ---------------------------------------------------
  free energy    TOTEN  =      -143.15180846 eV

  energy without entropy =     -143.15180846  energy(sigma->0) =     -143.15180846
  exchange ACFDT corr.  =        -0.00000000  see jH, gK, PRB 81, 115126


--------------------------------------------------------------------------------------------------------




--------------------------------------- Iteration      1(  12)  ---------------------------------------


    POTLOK:  cpu time      0.8609: real time      0.8641
    SETDIJ:  cpu time      0.0022: real time      0.0022
    TRIAL :  cpu time      5.1738: real time      5.2047
    CORREC:  cpu time      0.0002: real time      0.0002
    CHARGE:  cpu time      0.1104: real time      0.1113
    --------------------------------------------
      LOOP:  cpu time      6.1477: real time      6.1827

 eigenvalue-minimisations  :     0
 total energy-change (2. order) :-0.8633783E+00  (-0.5098612E+00)
 number of electron      52.0000005 magnetization 
 augmentation part        1.7898149 magnetization 

 DIPCOR: dipole corrections for dipol
 direction  1 min pos     1, direction  2 min pos     1, direction  3 min pos     1,
 dipolmoment          -0.750990     -0.239835      0.571079 electrons x Angstroem
 Tr[quadrupol]        34.569980

 energy correction for charged system         0.000000 eV
 dipol+quadrupol energy correction           -0.003572 eV
 added-field ion interaction         -0.148432 eV  (added to PSCEN)


 Free energy of the ion-electron system (eV)
  ---------------------------------------------------
  alpha Z        PSCENC =         1.27887436
  Ewald energy   TEWEN  =      3924.80414089
  -Hartree energ DENC   =     -5464.74562621
  -exchange      EXHF   =       113.12327638
  -V(xc)+E(xc)   XCENC  =       144.90305914
  PAW double counting   =      3979.92356471    -3989.69831653
  entropy T*S    EENTRO =        -0.00000000
  eigenvalues    EBANDS =      -727.15474250
  atomic energy  EATOM  =      1873.55058303
  ---------------------------------------------------
  free energy    TOTEN  =      -144.01518674 eV

  energy without entropy =     -144.01518674  energy(sigma->0) =     -144.01518674
  exchange ACFDT corr.  =        -0.00000000  see jH, gK, PRB 81, 115126


--------------------------------------------------------------------------------------------------------




--------------------------------------- Iteration      1(  13)  ---------------------------------------


    POTLOK:  cpu time      0.8580: real time      0.8613
    SETDIJ:  cpu time      0.0057: real time      0.0057
    TRIAL :  cpu time      5.1572: real time      5.1879
    CORREC:  cpu time      0.0003: real time      0.0003
    CHARGE:  cpu time      0.1106: real time      0.1115
    --------------------------------------------
      LOOP:  cpu time      6.1324: real time      6.1694

 eigenvalue-minimisations  :     0
 total energy-change (2. order) :-0.3154063E+00  (-0.2025820E+00)
 number of electron      52.0000006 magnetization 
 augmentation part        1.7912675 magnetization 

 DIPCOR: dipole corrections for dipol
 direction  1 min pos     1, direction  2 min pos     1, direction  3 min pos     1,
 dipolmoment          -0.739431     -0.251008      0.558875 electrons x Angstroem
 Tr[quadrupol]        33.520013

 energy correction for charged system         0.000000 eV
 dipol+quadrupol energy correction           -0.003476 eV
 added-field ion interaction         -0.146160 eV  (added to PSCEN)


 Free energy of the ion-electron system (eV)
  ---------------------------------------------------
  alpha Z        PSCENC =         1.28124321
  Ewald energy   TEWEN  =      3924.80414089
  -Hartree energ DENC   =     -5466.32899530
  -exchange      EXHF   =       113.16535046
  -V(xc)+E(xc)   XCENC  =       144.93694846
  PAW double counting   =      3974.68578707    -3984.47923126
  entropy T*S    EENTRO =        -0.00000000
  eigenvalues    EBANDS =      -725.94641963
  atomic energy  EATOM  =      1873.55058303
  ---------------------------------------------------
  free energy    TOTEN  =      -144.33059306 eV

  energy without entropy =     -144.33059306  energy(sigma->0) =     -144.33059306
  exchange ACFDT corr.  =        -0.00000000  see jH, gK, PRB 81, 115126


--------------------------------------------------------------------------------------------------------




--------------------------------------- Iteration      1(  14)  ---------------------------------------


    POTLOK:  cpu time      0.8649: real time      0.8683
    SETDIJ:  cpu time      0.0024: real time      0.0025
    TRIAL :  cpu time      5.1754: real time      5.2060
    CORREC:  cpu time      0.0002: real time      0.0002
    CHARGE:  cpu time      0.1107: real time      0.1122
    --------------------------------------------
      LOOP:  cpu time      6.1540: real time      6.1894

 eigenvalue-minimisations  :     0
 total energy-change (2. order) :-0.1336160E+00  (-0.9791152E-01)
 number of electron      52.0000006 magnetization 
 augmentation part        1.7911086 magnetization 

 DIPCOR: dipole corrections for dipol
 direction  1 min pos     1, direction  2 min pos     1, direction  3 min pos     1,
 dipolmoment          -0.724875     -0.248919      0.540086 electrons x Angstroem
 Tr[quadrupol]        33.295957

 energy correction for charged system         0.000000 eV
 dipol+quadrupol energy correction           -0.003314 eV
 added-field ion interaction         -0.142881 eV  (added to PSCEN)


 Free energy of the ion-electron system (eV)
  ---------------------------------------------------
  alpha Z        PSCENC =         1.28468375
  Ewald energy   TEWEN  =      3924.80414089
  -Hartree energ DENC   =     -5464.93310800
  -exchange      EXHF   =       113.13584676
  -V(xc)+E(xc)   XCENC  =       144.89340908
  PAW double counting   =      3972.73112013    -3982.52783382
  entropy T*S    EENTRO =        -0.00000000
  eigenvalues    EBANDS =      -727.40305091
  atomic energy  EATOM  =      1873.55058303
  ---------------------------------------------------
  free energy    TOTEN  =      -144.46420909 eV

  energy without entropy =     -144.46420909  energy(sigma->0) =     -144.46420909
  exchange ACFDT corr.  =        -0.00000000  see jH, gK, PRB 81, 115126


--------------------------------------------------------------------------------------------------------




--------------------------------------- Iteration      1(  15)  ---------------------------------------


    POTLOK:  cpu time      0.8592: real time      0.8621
    SETDIJ:  cpu time      0.0024: real time      0.0024
    TRIAL :  cpu time      5.1513: real time      5.1820
    CORREC:  cpu time      0.0002: real time      0.0002
    CHARGE:  cpu time      0.1106: real time      0.1114
    --------------------------------------------
      LOOP:  cpu time      6.1239: real time      6.1584

 eigenvalue-minimisations  :     0
 total energy-change (2. order) :-0.6947558E-01  (-0.4799420E-01)
 number of electron      52.0000006 magnetization 
 augmentation part        1.7907578 magnetization 

 DIPCOR: dipole corrections for dipol
 direction  1 min pos     1, direction  2 min pos     1, direction  3 min pos     1,
 dipolmoment          -0.710886     -0.242801      0.524978 electrons x Angstroem
 Tr[quadrupol]        33.209499

 energy correction for charged system         0.000000 eV
 dipol+quadrupol energy correction           -0.003166 eV
 added-field ion interaction         -0.139840 eV  (added to PSCEN)


 Free energy of the ion-electron system (eV)
  ---------------------------------------------------
  alpha Z        PSCENC =         1.28787207
  Ewald energy   TEWEN  =      3924.80414089
  -Hartree energ DENC   =     -5464.07943814
  -exchange      EXHF   =       113.11570329
  -V(xc)+E(xc)   XCENC  =       144.86261752
  PAW double counting   =      3974.38319743    -3984.18047603
  entropy T*S    EENTRO =        -0.00000000
  eigenvalues    EBANDS =      -728.27788474
  atomic energy  EATOM  =      1873.55058303
  ---------------------------------------------------
  free energy    TOTEN  =      -144.53368467 eV

  energy without entropy =     -144.53368467  energy(sigma->0) =     -144.53368467
  exchange ACFDT corr.  =        -0.00000000  see jH, gK, PRB 81, 115126


--------------------------------------------------------------------------------------------------------




--------------------------------------- Iteration      1(  16)  ---------------------------------------


    POTLOK:  cpu time      0.8590: real time      0.8625
    SETDIJ:  cpu time      0.0022: real time      0.0022
    TRIAL :  cpu time      5.1668: real time      5.1975
    CORREC:  cpu time      0.0003: real time      0.0003
    CHARGE:  cpu time      0.1104: real time      0.1113
    --------------------------------------------
      LOOP:  cpu time      6.1388: real time      6.1739

 eigenvalue-minimisations  :     0
 total energy-change (2. order) :-0.3546683E-01  (-0.2231518E-01)
 number of electron      52.0000006 magnetization 
 augmentation part        1.7904943 magnetization 

 DIPCOR: dipole corrections for dipol
 direction  1 min pos     1, direction  2 min pos     1, direction  3 min pos     1,
 dipolmoment          -0.700772     -0.239293      0.516899 electrons x Angstroem
 Tr[quadrupol]        33.153204

 energy correction for charged system         0.000000 eV
 dipol+quadrupol energy correction           -0.003074 eV
 added-field ion interaction         -0.137816 eV  (added to PSCEN)


 Free energy of the ion-electron system (eV)
  ---------------------------------------------------
  alpha Z        PSCENC =         1.28998869
  Ewald energy   TEWEN  =      3924.80414089
  -Hartree energ DENC   =     -5464.14494195
  -exchange      EXHF   =       113.11598439
  -V(xc)+E(xc)   XCENC  =       144.85780316
  PAW double counting   =      3977.66722340    -3987.46527995
  entropy T*S    EENTRO =        -0.00000000
  eigenvalues    EBANDS =      -728.24465317
  atomic energy  EATOM  =      1873.55058303
  ---------------------------------------------------
  free energy    TOTEN  =      -144.56915150 eV

  energy without entropy =     -144.56915150  energy(sigma->0) =     -144.56915150
  exchange ACFDT corr.  =        -0.00000000  see jH, gK, PRB 81, 115126


--------------------------------------------------------------------------------------------------------




--------------------------------------- Iteration      1(  17)  ---------------------------------------


    POTLOK:  cpu time      0.8582: real time      0.8616
    SETDIJ:  cpu time      0.0021: real time      0.0021
    TRIAL :  cpu time      5.1577: real time      5.1880
    CORREC:  cpu time      0.0002: real time      0.0002
    CHARGE:  cpu time      0.1104: real time      0.1113
    --------------------------------------------
      LOOP:  cpu time      6.1289: real time      6.1635

 eigenvalue-minimisations  :     0
 total energy-change (2. order) :-0.1720566E-01  (-0.1113365E-01)
 number of electron      52.0000006 magnetization 
 augmentation part        1.7902922 magnetization 

 DIPCOR: dipole corrections for dipol
 direction  1 min pos     1, direction  2 min pos     1, direction  3 min pos     1,
 dipolmoment          -0.694465     -0.238775      0.513750 electrons x Angstroem
 Tr[quadrupol]        33.124767

 energy correction for charged system         0.000000 eV
 dipol+quadrupol energy correction           -0.003028 eV
 added-field ion interaction         -0.136683 eV  (added to PSCEN)


 Free energy of the ion-electron system (eV)
  ---------------------------------------------------
  alpha Z        PSCENC =         1.29116830
  Ewald energy   TEWEN  =      3924.80414089
  -Hartree energ DENC   =     -5464.34991021
  -exchange      EXHF   =       113.12127951
  -V(xc)+E(xc)   XCENC  =       144.86038161
  PAW double counting   =      3980.45142421    -3990.24957251
  entropy T*S    EENTRO =        -0.00000000
  eigenvalues    EBANDS =      -728.06585198
  atomic energy  EATOM  =      1873.55058303
  ---------------------------------------------------
  free energy    TOTEN  =      -144.58635716 eV

  energy without entropy =     -144.58635716  energy(sigma->0) =     -144.58635716
  exchange ACFDT corr.  =        -0.00000000  see jH, gK, PRB 81, 115126


--------------------------------------------------------------------------------------------------------




--------------------------------------- Iteration      1(  18)  ---------------------------------------


    POTLOK:  cpu time      0.8571: real time      0.8603
    SETDIJ:  cpu time      0.0024: real time      0.0024
    TRIAL :  cpu time      5.1584: real time      5.1942
    CORREC:  cpu time      0.0002: real time      0.0003
    CHARGE:  cpu time      0.1106: real time      0.1112
    --------------------------------------------
      LOOP:  cpu time      6.1289: real time      6.1687

 eigenvalue-minimisations  :     0
 total energy-change (2. order) :-0.8977876E-02  (-0.6128348E-02)
 number of electron      52.0000006 magnetization 
 augmentation part        1.7901286 magnetization 

 DIPCOR: dipole corrections for dipol
 direction  1 min pos     1, direction  2 min pos     1, direction  3 min pos     1,
 dipolmoment          -0.690699     -0.239510      0.512623 electrons x Angstroem
 Tr[quadrupol]        33.117437

 energy correction for charged system         0.000000 eV
 dipol+quadrupol energy correction           -0.003005 eV
 added-field ion interaction         -0.136063 eV  (added to PSCEN)


 Free energy of the ion-electron system (eV)
  ---------------------------------------------------
  alpha Z        PSCENC =         1.29181074
  Ewald energy   TEWEN  =      3924.80414089
  -Hartree energ DENC   =     -5464.33325612
  -exchange      EXHF   =       113.12255765
  -V(xc)+E(xc)   XCENC  =       144.85956477
  PAW double counting   =      3982.20435045    -3992.00166480
  entropy T*S    EENTRO =        -0.00000000
  eigenvalues    EBANDS =      -728.09342164
  atomic energy  EATOM  =      1873.55058303
  ---------------------------------------------------
  free energy    TOTEN  =      -144.59533503 eV

  energy without entropy =     -144.59533503  energy(sigma->0) =     -144.59533503
  exchange ACFDT corr.  =        -0.00000000  see jH, gK, PRB 81, 115126


--------------------------------------------------------------------------------------------------------




--------------------------------------- Iteration      1(  19)  ---------------------------------------


    POTLOK:  cpu time      0.8553: real time      0.8586
    SETDIJ:  cpu time      0.0051: real time      0.0051
    TRIAL :  cpu time      5.1639: real time      5.1942
    CORREC:  cpu time      0.0003: real time      0.0003
    CHARGE:  cpu time      0.1110: real time      0.1119
    --------------------------------------------
      LOOP:  cpu time      6.1364: real time      6.1710

 eigenvalue-minimisations  :     0
 total energy-change (2. order) :-0.5065217E-02  (-0.3484801E-02)
 number of electron      52.0000006 magnetization 
 augmentation part        1.7900130 magnetization 

 DIPCOR: dipole corrections for dipol
 direction  1 min pos     1, direction  2 min pos     1, direction  3 min pos     1,
 dipolmoment          -0.688326     -0.240068      0.511582 electrons x Angstroem
 Tr[quadrupol]        33.119651

 energy correction for charged system         0.000000 eV
 dipol+quadrupol energy correction           -0.002990 eV
 added-field ion interaction         -0.135655 eV  (added to PSCEN)


 Free energy of the ion-electron system (eV)
  ---------------------------------------------------
  alpha Z        PSCENC =         1.29223349
  Ewald energy   TEWEN  =      3924.80414089
  -Hartree energ DENC   =     -5464.17468243
  -exchange      EXHF   =       113.12036846
  -V(xc)+E(xc)   XCENC  =       144.85544123
  PAW double counting   =      3983.22734152    -3993.02343900
  entropy T*S    EENTRO =        -0.00000000
  eigenvalues    EBANDS =      -728.25238744
  atomic energy  EATOM  =      1873.55058303
  ---------------------------------------------------
  free energy    TOTEN  =      -144.60040025 eV

  energy without entropy =     -144.60040025  energy(sigma->0) =     -144.60040025
  exchange ACFDT corr.  =        -0.00000000  see jH, gK, PRB 81, 115126


--------------------------------------------------------------------------------------------------------




--------------------------------------- Iteration      1(  20)  ---------------------------------------


    POTLOK:  cpu time      0.8552: real time      0.8585
    SETDIJ:  cpu time      0.0033: real time      0.0033
    TRIAL :  cpu time      5.1378: real time      5.1784
    CORREC:  cpu time      0.0003: real time      0.0003
    CHARGE:  cpu time      0.1098: real time      0.1113
    --------------------------------------------
      LOOP:  cpu time      6.1066: real time      6.1520

 eigenvalue-minimisations  :     0
 total energy-change (2. order) :-0.2945947E-02  (-0.2029008E-02)
 number of electron      52.0000006 magnetization 
 augmentation part        1.7899482 magnetization 

 DIPCOR: dipole corrections for dipol
 direction  1 min pos     1, direction  2 min pos     1, direction  3 min pos     1,
 dipolmoment          -0.686735     -0.240022      0.510254 electrons x Angstroem
 Tr[quadrupol]        33.119918

 energy correction for charged system         0.000000 eV
 dipol+quadrupol energy correction           -0.002976 eV
 added-field ion interaction         -0.135341 eV  (added to PSCEN)


 Free energy of the ion-electron system (eV)
  ---------------------------------------------------
  alpha Z        PSCENC =         1.29256186
  Ewald energy   TEWEN  =      3924.80414089
  -Hartree energ DENC   =     -5464.06647477
  -exchange      EXHF   =       113.11850867
  -V(xc)+E(xc)   XCENC  =       144.85227932
  PAW double counting   =      3983.89097092    -3993.68609833
  entropy T*S    EENTRO =        -0.00000000
  eigenvalues    EBANDS =      -728.35981779
  atomic energy  EATOM  =      1873.55058303
  ---------------------------------------------------
  free energy    TOTEN  =      -144.60334620 eV

  energy without entropy =     -144.60334620  energy(sigma->0) =     -144.60334620
  exchange ACFDT corr.  =        -0.00000000  see jH, gK, PRB 81, 115126


--------------------------------------------------------------------------------------------------------




--------------------------------------- Iteration      1(  21)  ---------------------------------------


    POTLOK:  cpu time      0.8559: real time      0.8587
    SETDIJ:  cpu time      0.0033: real time      0.0033
    TRIAL :  cpu time      5.1634: real time      5.1946
    CORREC:  cpu time      0.0003: real time      0.0003
    CHARGE:  cpu time      0.1108: real time      0.1114
    --------------------------------------------
      LOOP:  cpu time      6.1340: real time      6.1687

 eigenvalue-minimisations  :     0
 total energy-change (2. order) :-0.1756608E-02  (-0.1218046E-02)
 number of electron      52.0000006 magnetization 
 augmentation part        1.7899133 magnetization 

 DIPCOR: dipole corrections for dipol
 direction  1 min pos     1, direction  2 min pos     1, direction  3 min pos     1,
 dipolmoment          -0.685596     -0.239682      0.508991 electrons x Angstroem
 Tr[quadrupol]        33.116402

 energy correction for charged system         0.000000 eV
 dipol+quadrupol energy correction           -0.002965 eV
 added-field ion interaction         -0.135093 eV  (added to PSCEN)


 Free energy of the ion-electron system (eV)
  ---------------------------------------------------
  alpha Z        PSCENC =         1.29282097
  Ewald energy   TEWEN  =      3924.80414089
  -Hartree energ DENC   =     -5464.04734550
  -exchange      EXHF   =       113.11816044
  -V(xc)+E(xc)   XCENC  =       144.85116029
  PAW double counting   =      3984.32494818    -3994.11951794
  entropy T*S    EENTRO =        -0.00000000
  eigenvalues    EBANDS =      -728.38005317
  atomic energy  EATOM  =      1873.55058303
  ---------------------------------------------------
  free energy    TOTEN  =      -144.60510280 eV

  energy without entropy =     -144.60510280  energy(sigma->0) =     -144.60510280
  exchange ACFDT corr.  =        -0.00000000  see jH, gK, PRB 81, 115126


--------------------------------------------------------------------------------------------------------




--------------------------------------- Iteration      1(  22)  ---------------------------------------


    POTLOK:  cpu time      0.8618: real time      0.8653
    SETDIJ:  cpu time      0.0023: real time      0.0023
    TRIAL :  cpu time      5.1541: real time      5.1842
    CORREC:  cpu time      0.0003: real time      0.0003
    CHARGE:  cpu time      0.1103: real time      0.1112
    --------------------------------------------
      LOOP:  cpu time      6.1290: real time      6.1636

 eigenvalue-minimisations  :     0
 total energy-change (2. order) :-0.1066679E-02  (-0.7419108E-03)
 number of electron      52.0000006 magnetization 
 augmentation part        1.7898901 magnetization 

 DIPCOR: dipole corrections for dipol
 direction  1 min pos     1, direction  2 min pos     1, direction  3 min pos     1,
 dipolmoment          -0.684784     -0.239417      0.508099 electrons x Angstroem
 Tr[quadrupol]        33.112877

 energy correction for charged system         0.000000 eV
 dipol+quadrupol energy correction           -0.002957 eV
 added-field ion interaction         -0.134918 eV  (added to PSCEN)


 Free energy of the ion-electron system (eV)
  ---------------------------------------------------
  alpha Z        PSCENC =         1.29300416
  Ewald energy   TEWEN  =      3924.80414089
  -Hartree energ DENC   =     -5464.05854258
  -exchange      EXHF   =       113.11847765
  -V(xc)+E(xc)   XCENC  =       144.85120094
  PAW double counting   =      3984.57202854    -3994.36627898
  entropy T*S    EENTRO =        -0.00000000
  eigenvalues    EBANDS =      -728.37078313
  atomic energy  EATOM  =      1873.55058303
  ---------------------------------------------------
  free energy    TOTEN  =      -144.60616948 eV

  energy without entropy =     -144.60616948  energy(sigma->0) =     -144.60616948
  exchange ACFDT corr.  =        -0.00000000  see jH, gK, PRB 81, 115126


--------------------------------------------------------------------------------------------------------




--------------------------------------- Iteration      1(  23)  ---------------------------------------


    POTLOK:  cpu time      0.8558: real time      0.8591
    SETDIJ:  cpu time      0.0022: real time      0.0022
    TRIAL :  cpu time      5.1772: real time      5.2077
    CORREC:  cpu time      0.0002: real time      0.0002
    CHARGE:  cpu time      0.1104: real time      0.1113
    --------------------------------------------
      LOOP:  cpu time      6.1503: real time      6.1869

 eigenvalue-minimisations  :     0
 total energy-change (2. order) :-0.6519976E-03  (-0.4640963E-03)
 number of electron      52.0000006 magnetization 
 augmentation part        1.7898753 magnetization 

 DIPCOR: dipole corrections for dipol
 direction  1 min pos     1, direction  2 min pos     1, direction  3 min pos     1,
 dipolmoment          -0.684225     -0.239304      0.507585 electrons x Angstroem
 Tr[quadrupol]        33.111821

 energy correction for charged system         0.000000 eV
 dipol+quadrupol energy correction           -0.002952 eV
 added-field ion interaction         -0.134802 eV  (added to PSCEN)


 Free energy of the ion-electron system (eV)
  ---------------------------------------------------
  alpha Z        PSCENC =         1.29312494
  Ewald energy   TEWEN  =      3924.80414089
  -Hartree energ DENC   =     -5464.05631400
  -exchange      EXHF   =       113.11861955
  -V(xc)+E(xc)   XCENC  =       144.85111794
  PAW double counting   =      3984.67289134    -3994.46690827
  entropy T*S    EENTRO =        -0.00000000
  eigenvalues    EBANDS =      -728.37407690
  atomic energy  EATOM  =      1873.55058303
  ---------------------------------------------------
  free energy    TOTEN  =      -144.60682148 eV

  energy without entropy =     -144.60682148  energy(sigma->0) =     -144.60682148
  exchange ACFDT corr.  =        -0.00000000  see jH, gK, PRB 81, 115126


--------------------------------------------------------------------------------------------------------




--------------------------------------- Iteration      1(  24)  ---------------------------------------


    POTLOK:  cpu time      0.8568: real time      0.8601
    SETDIJ:  cpu time      0.0022: real time      0.0022
    TRIAL :  cpu time      5.1622: real time      5.1914
    CORREC:  cpu time      0.0002: real time      0.0002
    CHARGE:  cpu time      0.1103: real time      0.1111
    --------------------------------------------
      LOOP:  cpu time      6.1321: real time      6.1652

 eigenvalue-minimisations  :     0
 total energy-change (2. order) :-0.4113472E-03  (-0.3038019E-03)
 number of electron      52.0000006 magnetization 
 augmentation part        1.7898704 magnetization 

 DIPCOR: dipole corrections for dipol
 direction  1 min pos     1, direction  2 min pos     1, direction  3 min pos     1,
 dipolmoment          -0.683876     -0.239262      0.507317 electrons x Angstroem
 Tr[quadrupol]        33.112327

 energy correction for charged system         0.000000 eV
 dipol+quadrupol energy correction           -0.002949 eV
 added-field ion interaction         -0.134735 eV  (added to PSCEN)


 Free energy of the ion-electron system (eV)
  ---------------------------------------------------
  alpha Z        PSCENC =         1.29319490
  Ewald energy   TEWEN  =      3924.80414089
  -Hartree energ DENC   =     -5464.04276147
  -exchange      EXHF   =       113.11856528
  -V(xc)+E(xc)   XCENC  =       144.85089132
  PAW double counting   =      3984.69262512    -3994.48645155
  entropy T*S    EENTRO =        -0.00000000
  eigenvalues    EBANDS =      -728.38802035
  atomic energy  EATOM  =      1873.55058303
  ---------------------------------------------------
  free energy    TOTEN  =      -144.60723283 eV

  energy without entropy =     -144.60723283  energy(sigma->0) =     -144.60723283
  exchange ACFDT corr.  =        -0.00000000  see jH, gK, PRB 81, 115126


--------------------------------------------------------------------------------------------------------




--------------------------------------- Iteration      1(  25)  ---------------------------------------


    POTLOK:  cpu time      0.8548: real time      0.8580
    SETDIJ:  cpu time      0.0022: real time      0.0022
    TRIAL :  cpu time      5.1821: real time      5.2111
    CORREC:  cpu time      0.0001: real time      0.0001
    CHARGE:  cpu time      0.1105: real time      0.1113
    --------------------------------------------
      LOOP:  cpu time      6.1502: real time      6.1831

 eigenvalue-minimisations  :     0
 total energy-change (2. order) :-0.2713135E-03  (-0.2072005E-03)
 number of electron      52.0000006 magnetization 
 augmentation part        1.7898743 magnetization 

 DIPCOR: dipole corrections for dipol
 direction  1 min pos     1, direction  2 min pos     1, direction  3 min pos     1,
 dipolmoment          -0.683663     -0.239248      0.507199 electrons x Angstroem
 Tr[quadrupol]        33.113079

 energy correction for charged system         0.000000 eV
 dipol+quadrupol energy correction           -0.002947 eV
 added-field ion interaction         -0.134696 eV  (added to PSCEN)


 Free energy of the ion-electron system (eV)
  ---------------------------------------------------
  alpha Z        PSCENC =         1.29323558
  Ewald energy   TEWEN  =      3924.80414089
  -Hartree energ DENC   =     -5464.03181486
  -exchange      EXHF   =       113.11858188
  -V(xc)+E(xc)   XCENC  =       144.85077625
  PAW double counting   =      3984.68923430    -3994.48291785
  entropy T*S    EENTRO =        -0.00000000
  eigenvalues    EBANDS =      -728.39932337
  atomic energy  EATOM  =      1873.55058303
  ---------------------------------------------------
  free energy    TOTEN  =      -144.60750414 eV

  energy without entropy =     -144.60750414  energy(sigma->0) =     -144.60750414
  exchange ACFDT corr.  =        -0.00000000  see jH, gK, PRB 81, 115126


--------------------------------------------------------------------------------------------------------




--------------------------------------- Iteration      1(  26)  ---------------------------------------


    POTLOK:  cpu time      0.8548: real time      0.8582
    SETDIJ:  cpu time      0.0024: real time      0.0025
    TRIAL :  cpu time      5.1892: real time      5.2181
    CORREC:  cpu time      0.0002: real time      0.0003
    CHARGE:  cpu time      0.1104: real time      0.1116
    --------------------------------------------
      LOOP:  cpu time      6.1572: real time      6.1908

 eigenvalue-minimisations  :     0
 total energy-change (2. order) :-0.1875907E-03  (-0.1503123E-03)
 number of electron      52.0000006 magnetization 
 augmentation part        1.7898804 magnetization 

 DIPCOR: dipole corrections for dipol
 direction  1 min pos     1, direction  2 min pos     1, direction  3 min pos     1,
 dipolmoment          -0.683600     -0.239253      0.507191 electrons x Angstroem
 Tr[quadrupol]        33.114042

 energy correction for charged system         0.000000 eV
 dipol+quadrupol energy correction           -0.002947 eV
 added-field ion interaction         -0.134686 eV  (added to PSCEN)


 Free energy of the ion-electron system (eV)
  ---------------------------------------------------
  alpha Z        PSCENC =         1.29324532
  Ewald energy   TEWEN  =      3924.80414089
  -Hartree energ DENC   =     -5464.02646768
  -exchange      EXHF   =       113.11872970
  -V(xc)+E(xc)   XCENC  =       144.85084185
  PAW double counting   =      3984.68859343    -3994.48217967
  entropy T*S    EENTRO =        -0.00000000
  eigenvalues    EBANDS =      -728.40517861
  atomic energy  EATOM  =      1873.55058303
  ---------------------------------------------------
  free energy    TOTEN  =      -144.60769173 eV

  energy without entropy =     -144.60769173  energy(sigma->0) =     -144.60769173
  exchange ACFDT corr.  =        -0.00000000  see jH, gK, PRB 81, 115126


--------------------------------------------------------------------------------------------------------




--------------------------------------- Iteration      1(  27)  ---------------------------------------


    POTLOK:  cpu time      0.8554: real time      0.8582
    SETDIJ:  cpu time      0.0023: real time      0.0023
    TRIAL :  cpu time      5.1549: real time      5.1846
    CORREC:  cpu time      0.0003: real time      0.0003
    CHARGE:  cpu time      0.1112: real time      0.1117
    --------------------------------------------
      LOOP:  cpu time      6.1243: real time      6.1573

 eigenvalue-minimisations  :     0
 total energy-change (2. order) :-0.1373106E-03  (-0.1147319E-03)
 number of electron      52.0000006 magnetization 
 augmentation part        1.7898845 magnetization 

 DIPCOR: dipole corrections for dipol
 direction  1 min pos     1, direction  2 min pos     1, direction  3 min pos     1,
 dipolmoment          -0.683545     -0.239242      0.507221 electrons x Angstroem
 Tr[quadrupol]        33.114940

 energy correction for charged system         0.000000 eV
 dipol+quadrupol energy correction           -0.002947 eV
 added-field ion interaction         -0.134680 eV  (added to PSCEN)


 Free energy of the ion-electron system (eV)
  ---------------------------------------------------
  alpha Z        PSCENC =         1.29325165
  Ewald energy   TEWEN  =      3924.80414089
  -Hartree energ DENC   =     -5464.02163812
  -exchange      EXHF   =       113.11887051
  -V(xc)+E(xc)   XCENC  =       144.85088439
  PAW double counting   =      3984.69108512    -3994.48459761
  entropy T*S    EENTRO =        -0.00000000
  eigenvalues    EBANDS =      -728.41040891
  atomic energy  EATOM  =      1873.55058303
  ---------------------------------------------------
  free energy    TOTEN  =      -144.60782904 eV

  energy without entropy =     -144.60782904  energy(sigma->0) =     -144.60782904
  exchange ACFDT corr.  =        -0.00000000  see jH, gK, PRB 81, 115126


--------------------------------------------------------------------------------------------------------




--------------------------------------- Iteration      1(  28)  ---------------------------------------


    POTLOK:  cpu time      0.8551: real time      0.8587
    SETDIJ:  cpu time      0.0022: real time      0.0022
    TRIAL :  cpu time      5.1689: real time      5.2021
    CORREC:  cpu time      0.0002: real time      0.0002
    CHARGE:  cpu time      0.1105: real time      0.1114
    --------------------------------------------
      LOOP:  cpu time      6.1372: real time      6.1748

 eigenvalue-minimisations  :     0
 total energy-change (2. order) :-0.1037354E-03  (-0.9137675E-04)
 number of electron      52.0000006 magnetization 
 augmentation part        1.7898902 magnetization 

 DIPCOR: dipole corrections for dipol
 direction  1 min pos     1, direction  2 min pos     1, direction  3 min pos     1,
 dipolmoment          -0.683589     -0.239269      0.507254 electrons x Angstroem
 Tr[quadrupol]        33.116026

 energy correction for charged system         0.000000 eV
 dipol+quadrupol energy correction           -0.002947 eV
 added-field ion interaction         -0.134688 eV  (added to PSCEN)


 Free energy of the ion-electron system (eV)
  ---------------------------------------------------
  alpha Z        PSCENC =         1.29324333
  Ewald energy   TEWEN  =      3924.80414089
  -Hartree energ DENC   =     -5464.01664817
  -exchange      EXHF   =       113.11897255
  -V(xc)+E(xc)   XCENC  =       144.85096940
  PAW double counting   =      3984.69385949    -3994.48730967
  entropy T*S    EENTRO =        -0.00000000
  eigenvalues    EBANDS =      -728.41574363
  atomic energy  EATOM  =      1873.55058303
  ---------------------------------------------------
  free energy    TOTEN  =      -144.60793278 eV

  energy without entropy =     -144.60793278  energy(sigma->0) =     -144.60793278
  exchange ACFDT corr.  =        -0.00000000  see jH, gK, PRB 81, 115126


--------------------------------------------------------------------------------------------------------




--------------------------------------- Iteration      1(  29)  ---------------------------------------


    POTLOK:  cpu time      0.8542: real time      0.8573
    SETDIJ:  cpu time      0.0040: real time      0.0040
    TRIAL :  cpu time      5.1342: real time      5.1744
    CORREC:  cpu time      0.0002: real time      0.0003
    CHARGE:  cpu time      0.1106: real time      0.1113
    --------------------------------------------
      LOOP:  cpu time      6.1034: real time      6.1476

 eigenvalue-minimisations  :     0
 total energy-change (2. order) :-0.8159311E-04  (-0.7519715E-04)
 number of electron      52.0000006 magnetization 
 augmentation part        1.7898941 magnetization 

 DIPCOR: dipole corrections for dipol
 direction  1 min pos     1, direction  2 min pos     1, direction  3 min pos     1,
 dipolmoment          -0.683559     -0.239287      0.507294 electrons x Angstroem
 Tr[quadrupol]        33.116605

 energy correction for charged system         0.000000 eV
 dipol+quadrupol energy correction           -0.002947 eV
 added-field ion interaction         -0.134685 eV  (added to PSCEN)


 Free energy of the ion-electron system (eV)
  ---------------------------------------------------
  alpha Z        PSCENC =         1.29324618
  Ewald energy   TEWEN  =      3924.80414089
  -Hartree energ DENC   =     -5464.01276529
  -exchange      EXHF   =       113.11904133
  -V(xc)+E(xc)   XCENC  =       144.85093056
  PAW double counting   =      3984.69504508    -3994.48845938
  entropy T*S    EENTRO =        -0.00000000
  eigenvalues    EBANDS =      -728.41977677
  atomic energy  EATOM  =      1873.55058303
  ---------------------------------------------------
  free energy    TOTEN  =      -144.60801437 eV

  energy without entropy =     -144.60801437  energy(sigma->0) =     -144.60801437
  exchange ACFDT corr.  =        -0.00000000  see jH, gK, PRB 81, 115126


--------------------------------------------------------------------------------------------------------




--------------------------------------- Iteration      1(  30)  ---------------------------------------


    POTLOK:  cpu time      0.8556: real time      0.8587
    SETDIJ:  cpu time      0.0024: real time      0.0024
    TRIAL :  cpu time      5.1689: real time      5.1978
    CORREC:  cpu time      0.0002: real time      0.0002
    CHARGE:  cpu time      0.1104: real time      0.1113
    --------------------------------------------
      LOOP:  cpu time      6.1377: real time      6.1706

 eigenvalue-minimisations  :     0
 total energy-change (2. order) :-0.6450799E-04  (-0.6425754E-04)
 number of electron      52.0000006 magnetization 
 augmentation part        1.7898985 magnetization 

 DIPCOR: dipole corrections for dipol
 direction  1 min pos     1, direction  2 min pos     1, direction  3 min pos     1,
 dipolmoment          -0.683624     -0.239328      0.507330 electrons x Angstroem
 Tr[quadrupol]        33.117417

 energy correction for charged system         0.000000 eV
 dipol+quadrupol energy correction           -0.002948 eV
 added-field ion interaction         -0.134698 eV  (added to PSCEN)


 Free energy of the ion-electron system (eV)
  ---------------------------------------------------
  alpha Z        PSCENC =         1.29323291
  Ewald energy   TEWEN  =      3924.80414089
  -Hartree energ DENC   =     -5464.01083885
  -exchange      EXHF   =       113.11915185
  -V(xc)+E(xc)   XCENC  =       144.85104944
  PAW double counting   =      3984.69544912    -3994.48883388
  entropy T*S    EENTRO =        -0.00000000
  eigenvalues    EBANDS =      -728.42201339
  atomic energy  EATOM  =      1873.55058303
  ---------------------------------------------------
  free energy    TOTEN  =      -144.60807888 eV

  energy without entropy =     -144.60807888  energy(sigma->0) =     -144.60807888
  exchange ACFDT corr.  =        -0.00000000  see jH, gK, PRB 81, 115126


--------------------------------------------------------------------------------------------------------




--------------------------------------- Iteration      1(  31)  ---------------------------------------


    POTLOK:  cpu time      0.8560: real time      0.8591
    SETDIJ:  cpu time      0.0023: real time      0.0023
    TRIAL :  cpu time      5.1694: real time      5.1986
    CORREC:  cpu time      0.0002: real time      0.0002
    CHARGE:  cpu time      0.1105: real time      0.1113
    --------------------------------------------
      LOOP:  cpu time      6.1387: real time      6.1718

 eigenvalue-minimisations  :     0
 total energy-change (2. order) :-0.5457599E-04  (-0.5438632E-04)
 number of electron      52.0000006 magnetization 
 augmentation part        1.7898997 magnetization 

 DIPCOR: dipole corrections for dipol
 direction  1 min pos     1, direction  2 min pos     1, direction  3 min pos     1,
 dipolmoment          -0.683600     -0.239317      0.507343 electrons x Angstroem
 Tr[quadrupol]        33.117740

 energy correction for charged system         0.000000 eV
 dipol+quadrupol energy correction           -0.002948 eV
 added-field ion interaction         -0.134696 eV  (added to PSCEN)


 Free energy of the ion-electron system (eV)
  ---------------------------------------------------
  alpha Z        PSCENC =         1.29323525
  Ewald energy   TEWEN  =      3924.80414089
  -Hartree energ DENC   =     -5464.00797870
  -exchange      EXHF   =       113.11918370
  -V(xc)+E(xc)   XCENC  =       144.85103620
  PAW double counting   =      3984.69043694    -3994.48380673
  entropy T*S    EENTRO =        -0.00000000
  eigenvalues    EBANDS =      -728.42496404
  atomic energy  EATOM  =      1873.55058303
  ---------------------------------------------------
  free energy    TOTEN  =      -144.60813345 eV

  energy without entropy =     -144.60813345  energy(sigma->0) =     -144.60813345
  exchange ACFDT corr.  =        -0.00000000  see jH, gK, PRB 81, 115126


--------------------------------------------------------------------------------------------------------




--------------------------------------- Iteration      1(  32)  ---------------------------------------


    POTLOK:  cpu time      0.8555: real time      0.8589
    SETDIJ:  cpu time      0.0022: real time      0.0022
    TRIAL :  cpu time      5.1957: real time      5.2255
    CORREC:  cpu time      0.0002: real time      0.0002
    CHARGE:  cpu time      0.1105: real time      0.1118
    --------------------------------------------
      LOOP:  cpu time      6.1643: real time      6.1988

 eigenvalue-minimisations  :     0
 total energy-change (2. order) :-0.4269264E-04  (-0.4393576E-04)
 number of electron      52.0000006 magnetization 
 augmentation part        1.7899024 magnetization 

 DIPCOR: dipole corrections for dipol
 direction  1 min pos     1, direction  2 min pos     1, direction  3 min pos     1,
 dipolmoment          -0.683647     -0.239372      0.507393 electrons x Angstroem
 Tr[quadrupol]        33.118355

 energy correction for charged system         0.000000 eV
 dipol+quadrupol energy correction           -0.002948 eV
 added-field ion interaction         -0.134706 eV  (added to PSCEN)


 Free energy of the ion-electron system (eV)
  ---------------------------------------------------
  alpha Z        PSCENC =         1.29322421
  Ewald energy   TEWEN  =      3924.80414089
  -Hartree energ DENC   =     -5464.00603583
  -exchange      EXHF   =       113.11924528
  -V(xc)+E(xc)   XCENC  =       144.85105822
  PAW double counting   =      3984.68548979    -3994.47884234
  entropy T*S    EENTRO =        -0.00000000
  eigenvalues    EBANDS =      -728.42703940
  atomic energy  EATOM  =      1873.55058303
  ---------------------------------------------------
  free energy    TOTEN  =      -144.60817615 eV

  energy without entropy =     -144.60817615  energy(sigma->0) =     -144.60817615
  exchange ACFDT corr.  =        -0.00000000  see jH, gK, PRB 81, 115126


--------------------------------------------------------------------------------------------------------




--------------------------------------- Iteration      1(  33)  ---------------------------------------


    POTLOK:  cpu time      0.8544: real time      0.8572
    SETDIJ:  cpu time      0.0046: real time      0.0046
    TRIAL :  cpu time      5.1710: real time      5.2009
    CORREC:  cpu time      0.0003: real time      0.0003
    CHARGE:  cpu time      0.1103: real time      0.1111
    --------------------------------------------
      LOOP:  cpu time      6.1413: real time      6.1768

 eigenvalue-minimisations  :     0
 total energy-change (2. order) :-0.3783755E-04  (-0.3533495E-04)
 number of electron      52.0000006 magnetization 
 augmentation part        1.7899002 magnetization 

 DIPCOR: dipole corrections for dipol
 direction  1 min pos     1, direction  2 min pos     1, direction  3 min pos     1,
 dipolmoment          -0.683603     -0.239380      0.507373 electrons x Angstroem
 Tr[quadrupol]        33.118408

 energy correction for charged system         0.000000 eV
 dipol+quadrupol energy correction           -0.002948 eV
 added-field ion interaction         -0.134698 eV  (added to PSCEN)


 Free energy of the ion-electron system (eV)
  ---------------------------------------------------
  alpha Z        PSCENC =         1.29323283
  Ewald energy   TEWEN  =      3924.80414089
  -Hartree energ DENC   =     -5464.00624113
  -exchange      EXHF   =       113.11931735
  -V(xc)+E(xc)   XCENC  =       144.85110791
  PAW double counting   =      3984.68048594    -3994.47383294
  entropy T*S    EENTRO =        -0.00000000
  eigenvalues    EBANDS =      -728.42700788
  atomic energy  EATOM  =      1873.55058303
  ---------------------------------------------------
  free energy    TOTEN  =      -144.60821398 eV

  energy without entropy =     -144.60821398  energy(sigma->0) =     -144.60821398
  exchange ACFDT corr.  =        -0.00000000  see jH, gK, PRB 81, 115126


--------------------------------------------------------------------------------------------------------




--------------------------------------- Iteration      1(  34)  ---------------------------------------


    POTLOK:  cpu time      0.8524: real time      0.8557
    SETDIJ:  cpu time      0.0056: real time      0.0056
    TRIAL :  cpu time      5.1865: real time      5.2154
    CORREC:  cpu time      0.0002: real time      0.0002
    CHARGE:  cpu time      0.1104: real time      0.1113
    --------------------------------------------
      LOOP:  cpu time      6.1553: real time      6.1885

 eigenvalue-minimisations  :     0
 total energy-change (2. order) :-0.2917981E-04  (-0.2966210E-04)
 number of electron      52.0000006 magnetization 
 augmentation part        1.7899014 magnetization 

 DIPCOR: dipole corrections for dipol
 direction  1 min pos     1, direction  2 min pos     1, direction  3 min pos     1,
 dipolmoment          -0.683622     -0.239381      0.507383 electrons x Angstroem
 Tr[quadrupol]        33.118651

 energy correction for charged system         0.000000 eV
 dipol+quadrupol energy correction           -0.002948 eV
 added-field ion interaction         -0.134702 eV  (added to PSCEN)


 Free energy of the ion-electron system (eV)
  ---------------------------------------------------
  alpha Z        PSCENC =         1.29322836
  Ewald energy   TEWEN  =      3924.80414089
  -Hartree energ DENC   =     -5464.00428444
  -exchange      EXHF   =       113.11932816
  -V(xc)+E(xc)   XCENC  =       144.85109642
  PAW double counting   =      3984.67174555    -3994.46507501
  entropy T*S    EENTRO =        -0.00000000
  eigenvalues    EBANDS =      -728.42900613
  atomic energy  EATOM  =      1873.55058303
  ---------------------------------------------------
  free energy    TOTEN  =      -144.60824316 eV

  energy without entropy =     -144.60824316  energy(sigma->0) =     -144.60824316
  exchange ACFDT corr.  =        -0.00000000  see jH, gK, PRB 81, 115126


--------------------------------------------------------------------------------------------------------




--------------------------------------- Iteration      1(  35)  ---------------------------------------


    POTLOK:  cpu time      0.8562: real time      0.8595
    SETDIJ:  cpu time      0.0022: real time      0.0022
    TRIAL :  cpu time      5.1357: real time      5.1654
    CORREC:  cpu time      0.0002: real time      0.0002
    CHARGE:  cpu time      0.1110: real time      0.1116
    --------------------------------------------
      LOOP:  cpu time      6.1055: real time      6.1391

 eigenvalue-minimisations  :     0
 total energy-change (2. order) :-0.2524595E-04  (-0.2498926E-04)
 number of electron      52.0000006 magnetization 
 augmentation part        1.7898973 magnetization 

 DIPCOR: dipole corrections for dipol
 direction  1 min pos     1, direction  2 min pos     1, direction  3 min pos     1,
 dipolmoment          -0.683589     -0.239410      0.507401 electrons x Angstroem
 Tr[quadrupol]        33.118726

 energy correction for charged system         0.000000 eV
 dipol+quadrupol energy correction           -0.002948 eV
 added-field ion interaction         -0.134698 eV  (added to PSCEN)


 Free energy of the ion-electron system (eV)
  ---------------------------------------------------
  alpha Z        PSCENC =         1.29323246
  Ewald energy   TEWEN  =      3924.80414089
  -Hartree energ DENC   =     -5464.00489454
  -exchange      EXHF   =       113.11938990
  -V(xc)+E(xc)   XCENC  =       144.85119999
  PAW double counting   =      3984.66741041    -3994.46073658
  entropy T*S    EENTRO =        -0.00000000
  eigenvalues    EBANDS =      -728.42859397
  atomic energy  EATOM  =      1873.55058303
  ---------------------------------------------------
  free energy    TOTEN  =      -144.60826841 eV

  energy without entropy =     -144.60826841  energy(sigma->0) =     -144.60826841
  exchange ACFDT corr.  =        -0.00000000  see jH, gK, PRB 81, 115126


--------------------------------------------------------------------------------------------------------




--------------------------------------- Iteration      1(  36)  ---------------------------------------


    POTLOK:  cpu time      0.8555: real time      0.8586
    SETDIJ:  cpu time      0.0023: real time      0.0023
    TRIAL :  cpu time      5.1630: real time      5.1932
    CORREC:  cpu time      0.0002: real time      0.0002
    CHARGE:  cpu time      0.1109: real time      0.1117
    --------------------------------------------
      LOOP:  cpu time      6.1321: real time      6.1662

 eigenvalue-minimisations  :     0
 total energy-change (2. order) :-0.1989517E-04  (-0.2114495E-04)
 number of electron      52.0000006 magnetization 
 augmentation part        1.7898993 magnetization 

 DIPCOR: dipole corrections for dipol
 direction  1 min pos     1, direction  2 min pos     1, direction  3 min pos     1,
 dipolmoment          -0.683602     -0.239376      0.507359 electrons x Angstroem
 Tr[quadrupol]        33.119081

 energy correction for charged system         0.000000 eV
 dipol+quadrupol energy correction           -0.002948 eV
 added-field ion interaction         -0.134698 eV  (added to PSCEN)


 Free energy of the ion-electron system (eV)
  ---------------------------------------------------
  alpha Z        PSCENC =         1.29323301
  Ewald energy   TEWEN  =      3924.80414089
  -Hartree energ DENC   =     -5464.00196305
  -exchange      EXHF   =       113.11936102
  -V(xc)+E(xc)   XCENC  =       144.85105352
  PAW double counting   =      3984.65952538    -3994.45283279
  entropy T*S    EENTRO =        -0.00000000
  eigenvalues    EBANDS =      -728.43138932
  atomic energy  EATOM  =      1873.55058303
  ---------------------------------------------------
  free energy    TOTEN  =      -144.60828831 eV

  energy without entropy =     -144.60828831  energy(sigma->0) =     -144.60828831
  exchange ACFDT corr.  =        -0.00000000  see jH, gK, PRB 81, 115126


--------------------------------------------------------------------------------------------------------




--------------------------------------- Iteration      1(  37)  ---------------------------------------


    POTLOK:  cpu time      0.8562: real time      0.8594
    SETDIJ:  cpu time      0.0022: real time      0.0022
    TRIAL :  cpu time      5.1660: real time      5.1951
    CORREC:  cpu time      0.0002: real time      0.0002
    CHARGE:  cpu time      0.1104: real time      0.1112
    --------------------------------------------
      LOOP:  cpu time      6.1351: real time      6.1683

 eigenvalue-minimisations  :     0
 total energy-change (2. order) :-0.1716518E-04  (-0.1765790E-04)
 number of electron      52.0000006 magnetization 
 augmentation part        1.7898947 magnetization 

 DIPCOR: dipole corrections for dipol
 direction  1 min pos     1, direction  2 min pos     1, direction  3 min pos     1,
 dipolmoment          -0.683564     -0.239419      0.507390 electrons x Angstroem
 Tr[quadrupol]        33.118566

 energy correction for charged system         0.000000 eV
 dipol+quadrupol energy correction           -0.002948 eV
 added-field ion interaction         -0.134694 eV  (added to PSCEN)


 Free energy of the ion-electron system (eV)
  ---------------------------------------------------
  alpha Z        PSCENC =         1.29323652
  Ewald energy   TEWEN  =      3924.80414089
  -Hartree energ DENC   =     -5464.00599048
  -exchange      EXHF   =       113.11948211
  -V(xc)+E(xc)   XCENC  =       144.85127064
  PAW double counting   =      3984.66081078    -3994.45412126
  entropy T*S    EENTRO =        -0.00000000
  eigenvalues    EBANDS =      -728.42771771
  atomic energy  EATOM  =      1873.55058303
  ---------------------------------------------------
  free energy    TOTEN  =      -144.60830547 eV

  energy without entropy =     -144.60830547  energy(sigma->0) =     -144.60830547
  exchange ACFDT corr.  =        -0.00000000  see jH, gK, PRB 81, 115126


--------------------------------------------------------------------------------------------------------




--------------------------------------- Iteration      1(  38)  ---------------------------------------


    POTLOK:  cpu time      0.8559: real time      0.8608
    SETDIJ:  cpu time      0.0023: real time      0.0023
    TRIAL :  cpu time      5.1878: real time      5.2169
    CORREC:  cpu time      0.0002: real time      0.0002
    CHARGE:  cpu time      0.1106: real time      0.1114
    --------------------------------------------
      LOOP:  cpu time      6.1571: real time      6.1919

 eigenvalue-minimisations  :     0
 total energy-change (2. order) :-0.1437367E-04  (-0.1483682E-04)
 number of electron      52.0000006 magnetization 
 augmentation part        1.7898953 magnetization 

 DIPCOR: dipole corrections for dipol
 direction  1 min pos     1, direction  2 min pos     1, direction  3 min pos     1,
 dipolmoment          -0.683567     -0.239360      0.507374 electrons x Angstroem
 Tr[quadrupol]        33.119173

 energy correction for charged system         0.000000 eV
 dipol+quadrupol energy correction           -0.002948 eV
 added-field ion interaction         -0.134692 eV  (added to PSCEN)


 Free energy of the ion-electron system (eV)
  ---------------------------------------------------
  alpha Z        PSCENC =         1.29323865
  Ewald energy   TEWEN  =      3924.80414089
  -Hartree energ DENC   =     -5464.00158151
  -exchange      EXHF   =       113.11940650
  -V(xc)+E(xc)   XCENC  =       144.85113762
  PAW double counting   =      3984.65386999    -3994.44716030
  entropy T*S    EENTRO =        -0.00000000
  eigenvalues    EBANDS =      -728.43195472
  atomic energy  EATOM  =      1873.55058303
  ---------------------------------------------------
  free energy    TOTEN  =      -144.60831984 eV

  energy without entropy =     -144.60831984  energy(sigma->0) =     -144.60831984
  exchange ACFDT corr.  =        -0.00000000  see jH, gK, PRB 81, 115126


--------------------------------------------------------------------------------------------------------




--------------------------------------- Iteration      1(  39)  ---------------------------------------


    POTLOK:  cpu time      0.8562: real time      0.8591
    SETDIJ:  cpu time      0.0022: real time      0.0022
    TRIAL :  cpu time      5.1834: real time      5.2134
    CORREC:  cpu time      0.0002: real time      0.0002
    CHARGE:  cpu time      0.1107: real time      0.1115
    --------------------------------------------
      LOOP:  cpu time      6.1530: real time      6.1866

 eigenvalue-minimisations  :     0
 total energy-change (2. order) :-0.1048591E-04  (-0.1166074E-04)
 number of electron      52.0000006 magnetization 
 augmentation part        1.7898947 magnetization 

 DIPCOR: dipole corrections for dipol
 direction  1 min pos     1, direction  2 min pos     1, direction  3 min pos     1,
 dipolmoment          -0.683561     -0.239414      0.507378 electrons x Angstroem
 Tr[quadrupol]        33.118892

 energy correction for charged system         0.000000 eV
 dipol+quadrupol energy correction           -0.002948 eV
 added-field ion interaction         -0.134694 eV  (added to PSCEN)


 Free energy of the ion-electron system (eV)
  ---------------------------------------------------
  alpha Z        PSCENC =         1.29323670
  Ewald energy   TEWEN  =      3924.80414089
  -Hartree energ DENC   =     -5464.00336718
  -exchange      EXHF   =       113.11946995
  -V(xc)+E(xc)   XCENC  =       144.85116603
  PAW double counting   =      3984.65457544    -3994.44786571
  entropy T*S    EENTRO =        -0.00000000
  eigenvalues    EBANDS =      -728.43026948
  atomic energy  EATOM  =      1873.55058303
  ---------------------------------------------------
  free energy    TOTEN  =      -144.60833033 eV

  energy without entropy =     -144.60833033  energy(sigma->0) =     -144.60833033
  exchange ACFDT corr.  =        -0.00000000  see jH, gK, PRB 81, 115126


--------------------------------------------------------------------------------------------------------




--------------------------------------- Iteration      1(  40)  ---------------------------------------


    POTLOK:  cpu time      0.8566: real time      0.8602
    SETDIJ:  cpu time      0.0023: real time      0.0023
    TRIAL :  cpu time      5.1779: real time      5.2073
    CORREC:  cpu time      0.0002: real time      0.0003
    CHARGE:  cpu time      0.1110: real time      0.1117
    --------------------------------------------
      LOOP:  cpu time      6.1480: real time      6.1819

 eigenvalue-minimisations  :     0
 total energy-change (2. order) :-0.9153239E-05  (-0.9743143E-05)
 number of electron      52.0000006 magnetization 
 augmentation part        1.7898926 magnetization 

 DIPCOR: dipole corrections for dipol
 direction  1 min pos     1, direction  2 min pos     1, direction  3 min pos     1,
 dipolmoment          -0.683564     -0.239351      0.507365 electrons x Angstroem
 Tr[quadrupol]        33.118993

 energy correction for charged system         0.000000 eV
 dipol+quadrupol energy correction           -0.002948 eV
 added-field ion interaction         -0.134692 eV  (added to PSCEN)


 Free energy of the ion-electron system (eV)
  ---------------------------------------------------
  alpha Z        PSCENC =         1.29323903
  Ewald energy   TEWEN  =      3924.80414089
  -Hartree energ DENC   =     -5464.00378361
  -exchange      EXHF   =       113.11950222
  -V(xc)+E(xc)   XCENC  =       144.85125438
  PAW double counting   =      3984.65390598    -3994.44719115
  entropy T*S    EENTRO =        -0.00000000
  eigenvalues    EBANDS =      -728.42999026
  atomic energy  EATOM  =      1873.55058303
  ---------------------------------------------------
  free energy    TOTEN  =      -144.60833948 eV

  energy without entropy =     -144.60833948  energy(sigma->0) =     -144.60833948
  exchange ACFDT corr.  =        -0.00000000  see jH, gK, PRB 81, 115126


--------------------------------------------------------------------------------------------------------




--------------------------------------- Iteration      1(  41)  ---------------------------------------


    POTLOK:  cpu time      0.8564: real time      0.8595
    SETDIJ:  cpu time      0.0021: real time      0.0021
    TRIAL :  cpu time      5.1617: real time      5.1932
    CORREC:  cpu time      0.0002: real time      0.0002
    CHARGE:  cpu time      0.1107: real time      0.1115
    --------------------------------------------
      LOOP:  cpu time      6.1314: real time      6.1668

 eigenvalue-minimisations  :     0
 total energy-change (2. order) :-0.5796412E-05  (-0.8325326E-05)
 number of electron      52.0000006 magnetization 
 augmentation part        1.7898929 magnetization 

 DIPCOR: dipole corrections for dipol
 direction  1 min pos     1, direction  2 min pos     1, direction  3 min pos     1,
 dipolmoment          -0.683556     -0.239399      0.507367 electrons x Angstroem
 Tr[quadrupol]        33.119002

 energy correction for charged system         0.000000 eV
 dipol+quadrupol energy correction           -0.002948 eV
 added-field ion interaction         -0.134692 eV  (added to PSCEN)


 Free energy of the ion-electron system (eV)
  ---------------------------------------------------
  alpha Z        PSCENC =         1.29323922
  Ewald energy   TEWEN  =      3924.80414089
  -Hartree energ DENC   =     -5464.00241970
  -exchange      EXHF   =       113.11948304
  -V(xc)+E(xc)   XCENC  =       144.85115252
  PAW double counting   =      3984.65214548    -3994.44542156
  entropy T*S    EENTRO =        -0.00000000
  eigenvalues    EBANDS =      -728.43124819
  atomic energy  EATOM  =      1873.55058303
  ---------------------------------------------------
  free energy    TOTEN  =      -144.60834528 eV

  energy without entropy =     -144.60834528  energy(sigma->0) =     -144.60834528
  exchange ACFDT corr.  =        -0.00000000  see jH, gK, PRB 81, 115126


--------------------------------------------------------------------------------------------------------




--------------------------------------- Iteration      1(  42)  ---------------------------------------


    POTLOK:  cpu time      0.8560: real time      0.8591
    SETDIJ:  cpu time      0.0022: real time      0.0023
    TRIAL :  cpu time      5.1865: real time      5.2154
    CORREC:  cpu time      0.0002: real time      0.0002
    CHARGE:  cpu time      0.1106: real time      0.1114
    --------------------------------------------
      LOOP:  cpu time      6.1557: real time      6.1886

 eigenvalue-minimisations  :     0
 total energy-change (2. order) :-0.5728866E-05  (-0.7075890E-05)
 number of electron      52.0000006 magnetization 
 augmentation part        1.7898925 magnetization 

 DIPCOR: dipole corrections for dipol
 direction  1 min pos     1, direction  2 min pos     1, direction  3 min pos     1,
 dipolmoment          -0.683552     -0.239356      0.507356 electrons x Angstroem
 Tr[quadrupol]        33.118892

 energy correction for charged system         0.000000 eV
 dipol+quadrupol energy correction           -0.002948 eV
 added-field ion interaction         -0.134689 eV  (added to PSCEN)


 Free energy of the ion-electron system (eV)
  ---------------------------------------------------
  alpha Z        PSCENC =         1.29324219
  Ewald energy   TEWEN  =      3924.80414089
  -Hartree energ DENC   =     -5464.00353378
  -exchange      EXHF   =       113.11952571
  -V(xc)+E(xc)   XCENC  =       144.85124960
  PAW double counting   =      3984.65265461    -3994.44592976
  entropy T*S    EENTRO =        -0.00000000
  eigenvalues    EBANDS =      -728.43028351
  atomic energy  EATOM  =      1873.55058303
  ---------------------------------------------------
  free energy    TOTEN  =      -144.60835101 eV

  energy without entropy =     -144.60835101  energy(sigma->0) =     -144.60835101
  exchange ACFDT corr.  =        -0.00000000  see jH, gK, PRB 81, 115126


--------------------------------------------------------------------------------------------------------




--------------------------------------- Iteration      1(  43)  ---------------------------------------


    POTLOK:  cpu time      0.8553: real time      0.8585
    SETDIJ:  cpu time      0.0025: real time      0.0025
    TRIAL :  cpu time      5.1759: real time      5.2051
    CORREC:  cpu time      0.0001: real time      0.0001
    CHARGE:  cpu time      0.1108: real time      0.1119
    --------------------------------------------
      LOOP:  cpu time      6.1512: real time      6.1867

 eigenvalue-minimisations  :     0
 total energy-change (2. order) :-0.2929990E-05  (-0.5900665E-05)
 number of electron      52.0000006 magnetization 
 augmentation part        1.7898908 magnetization 

 DIPCOR: dipole corrections for dipol
 direction  1 min pos     1, direction  2 min pos     1, direction  3 min pos     1,
 dipolmoment          -0.683545     -0.239381      0.507351 electrons x Angstroem
 Tr[quadrupol]        33.118911

 energy correction for charged system         0.000000 eV
 dipol+quadrupol energy correction           -0.002948 eV
 added-field ion interaction         -0.134688 eV  (added to PSCEN)


 Free energy of the ion-electron system (eV)
  ---------------------------------------------------
  alpha Z        PSCENC =         1.29324313
  Ewald energy   TEWEN  =      3924.80414089
  -Hartree energ DENC   =     -5464.00342816
  -exchange      EXHF   =       113.11953716
  -V(xc)+E(xc)   XCENC  =       144.85122499
  PAW double counting   =      3984.65274426    -3994.44601622
  entropy T*S    EENTRO =        -0.00000000
  eigenvalues    EBANDS =      -728.43038303
  atomic energy  EATOM  =      1873.55058303
  ---------------------------------------------------
  free energy    TOTEN  =      -144.60835394 eV

  energy without entropy =     -144.60835394  energy(sigma->0) =     -144.60835394
  exchange ACFDT corr.  =        -0.00000000  see jH, gK, PRB 81, 115126


--------------------------------------------------------------------------------------------------------




--------------------------------------- Iteration      1(  44)  ---------------------------------------


    POTLOK:  cpu time      0.8562: real time      0.8589
    SETDIJ:  cpu time      0.0021: real time      0.0021
    TRIAL :  cpu time      5.1402: real time      5.1697
    CORREC:  cpu time      0.0001: real time      0.0001
    CHARGE:  cpu time      0.1105: real time      0.1114
    --------------------------------------------
      LOOP:  cpu time      6.1094: real time      6.1425

 eigenvalue-minimisations  :     0
 total energy-change (2. order) :-0.4692002E-05  (-0.4968519E-05)
 number of electron      52.0000006 magnetization 
 augmentation part        1.7898922 magnetization 

 DIPCOR: dipole corrections for dipol
 direction  1 min pos     1, direction  2 min pos     1, direction  3 min pos     1,
 dipolmoment          -0.683558     -0.239342      0.507335 electrons x Angstroem
 Tr[quadrupol]        33.118972

 energy correction for charged system         0.000000 eV
 dipol+quadrupol energy correction           -0.002948 eV
 added-field ion interaction         -0.134689 eV  (added to PSCEN)


 Free energy of the ion-electron system (eV)
  ---------------------------------------------------
  alpha Z        PSCENC =         1.29324246
  Ewald energy   TEWEN  =      3924.80414089
  -Hartree energ DENC   =     -5464.00242559
  -exchange      EXHF   =       113.11952467
  -V(xc)+E(xc)   XCENC  =       144.85125278
  PAW double counting   =      3984.65173957    -3994.44500402
  entropy T*S    EENTRO =        -0.00000000
  eigenvalues    EBANDS =      -728.43141243
  atomic energy  EATOM  =      1873.55058303
  ---------------------------------------------------
  free energy    TOTEN  =      -144.60835863 eV

  energy without entropy =     -144.60835863  energy(sigma->0) =     -144.60835863
  exchange ACFDT corr.  =        -0.00000000  see jH, gK, PRB 81, 115126


--------------------------------------------------------------------------------------------------------




--------------------------------------- Iteration      1(  45)  ---------------------------------------


    POTLOK:  cpu time      0.8542: real time      0.8576
    SETDIJ:  cpu time      0.0051: real time      0.0051
    TRIAL :  cpu time      5.1824: real time      5.2114
    CORREC:  cpu time      0.0001: real time      0.0001
    CHARGE:  cpu time      0.1106: real time      0.1115
    --------------------------------------------
      LOOP:  cpu time      6.1527: real time      6.1860

 eigenvalue-minimisations  :     0
 total energy-change (2. order) :-0.7778112E-06  (-0.4291126E-05)
 number of electron      52.0000006 magnetization 
 augmentation part        1.7898904 magnetization 

 DIPCOR: dipole corrections for dipol
 direction  1 min pos     1, direction  2 min pos     1, direction  3 min pos     1,
 dipolmoment          -0.683535     -0.239367      0.507352 electrons x Angstroem
 Tr[quadrupol]        33.118930

 energy correction for charged system         0.000000 eV
 dipol+quadrupol energy correction           -0.002948 eV
 added-field ion interaction         -0.134687 eV  (added to PSCEN)


 Free energy of the ion-electron system (eV)
  ---------------------------------------------------
  alpha Z        PSCENC =         1.29324384
  Ewald energy   TEWEN  =      3924.80414089
  -Hartree energ DENC   =     -5464.00323854
  -exchange      EXHF   =       113.11955613
  -V(xc)+E(xc)   XCENC  =       144.85121051
  PAW double counting   =      3984.65288051    -3994.44614829
  entropy T*S    EENTRO =        -0.00000000
  eigenvalues    EBANDS =      -728.43058750
  atomic energy  EATOM  =      1873.55058303
  ---------------------------------------------------
  free energy    TOTEN  =      -144.60835941 eV

  energy without entropy =     -144.60835941  energy(sigma->0) =     -144.60835941
  exchange ACFDT corr.  =        -0.00000000  see jH, gK, PRB 81, 115126


--------------------------------------------------------------------------------------------------------




--------------------------------------- Iteration      1(  46)  ---------------------------------------


    POTLOK:  cpu time      0.8556: real time      0.8587
    SETDIJ:  cpu time      0.0036: real time      0.0036
    TRIAL :  cpu time      5.1836: real time      5.2130
    CORREC:  cpu time      0.0002: real time      0.0002
    CHARGE:  cpu time      0.1107: real time      0.1116
    --------------------------------------------
      LOOP:  cpu time      6.1538: real time      6.1872

 eigenvalue-minimisations  :     0
 total energy-change (2. order) :-0.3319052E-05  (-0.3787225E-05)
 number of electron      52.0000006 magnetization 
 augmentation part        1.7898910 magnetization 

 DIPCOR: dipole corrections for dipol
 direction  1 min pos     1, direction  2 min pos     1, direction  3 min pos     1,
 dipolmoment          -0.683562     -0.239354      0.507318 electrons x Angstroem
 Tr[quadrupol]        33.118813

 energy correction for charged system         0.000000 eV
 dipol+quadrupol energy correction           -0.002948 eV
 added-field ion interaction         -0.134688 eV  (added to PSCEN)


 Free energy of the ion-electron system (eV)
  ---------------------------------------------------
  alpha Z        PSCENC =         1.29324273
  Ewald energy   TEWEN  =      3924.80414089
  -Hartree energ DENC   =     -5464.00352051
  -exchange      EXHF   =       113.11956931
  -V(xc)+E(xc)   XCENC  =       144.85131485
  PAW double counting   =      3984.65307759    -3994.44633775
  entropy T*S    EENTRO =        -0.00000000
  eigenvalues    EBANDS =      -728.43043287
  atomic energy  EATOM  =      1873.55058303
  ---------------------------------------------------
  free energy    TOTEN  =      -144.60836273 eV

  energy without entropy =     -144.60836273  energy(sigma->0) =     -144.60836273
  exchange ACFDT corr.  =        -0.00000000  see jH, gK, PRB 81, 115126


--------------------------------------------------------------------------------------------------------




--------------------------------------- Iteration      1(  47)  ---------------------------------------


    POTLOK:  cpu time      0.8558: real time      0.8589
    SETDIJ:  cpu time      0.0023: real time      0.0023
    TRIAL :  cpu time      5.1759: real time      5.2051
    CORREC:  cpu time      0.0001: real time      0.0001
    CHARGE:  cpu time      0.1106: real time      0.1115
    --------------------------------------------
      LOOP:  cpu time      6.1449: real time      6.1781

 eigenvalue-minimisations  :     0
 total energy-change (2. order) :-0.2324555E-06  (-0.3444400E-05)
 number of electron      52.0000006 magnetization 
 augmentation part        1.7898907 magnetization 

 DIPCOR: dipole corrections for dipol
 direction  1 min pos     1, direction  2 min pos     1, direction  3 min pos     1,
 dipolmoment          -0.683533     -0.239353      0.507344 electrons x Angstroem
 Tr[quadrupol]        33.118959

 energy correction for charged system         0.000000 eV
 dipol+quadrupol energy correction           -0.002948 eV
 added-field ion interaction         -0.134687 eV  (added to PSCEN)


 Free energy of the ion-electron system (eV)
  ---------------------------------------------------
  alpha Z        PSCENC =         1.29324472
  Ewald energy   TEWEN  =      3924.80414089
  -Hartree energ DENC   =     -5464.00244883
  -exchange      EXHF   =       113.11955356
  -V(xc)+E(xc)   XCENC  =       144.85120358
  PAW double counting   =      3984.65246092    -3994.44572209
  entropy T*S    EENTRO =        -0.00000000
  eigenvalues    EBANDS =      -728.43137875
  atomic energy  EATOM  =      1873.55058303
  ---------------------------------------------------
  free energy    TOTEN  =      -144.60836296 eV

  energy without entropy =     -144.60836296  energy(sigma->0) =     -144.60836296
  exchange ACFDT corr.  =        -0.00000000  see jH, gK, PRB 81, 115126


--------------------------------------------------------------------------------------------------------




--------------------------------------- Iteration      1(  48)  ---------------------------------------


    POTLOK:  cpu time      0.8554: real time      0.8587
    SETDIJ:  cpu time      0.0025: real time      0.0025
    TRIAL :  cpu time      5.1821: real time      5.2121
    CORREC:  cpu time      0.0002: real time      0.0002
    CHARGE:  cpu time      0.1105: real time      0.1114
    --------------------------------------------
      LOOP:  cpu time      6.1509: real time      6.1851

 eigenvalue-minimisations  :     0
 total energy-change (2. order) :-0.1912135E-05  (-0.3041405E-05)
 number of electron      52.0000006 magnetization 
 augmentation part        1.7898905 magnetization 

 DIPCOR: dipole corrections for dipol
 direction  1 min pos     1, direction  2 min pos     1, direction  3 min pos     1,
 dipolmoment          -0.683560     -0.239324      0.507321 electrons x Angstroem
 Tr[quadrupol]        33.118841

 energy correction for charged system         0.000000 eV
 dipol+quadrupol energy correction           -0.002948 eV
 added-field ion interaction         -0.134689 eV  (added to PSCEN)


 Free energy of the ion-electron system (eV)
  ---------------------------------------------------
  alpha Z        PSCENC =         1.29324227
  Ewald energy   TEWEN  =      3924.80414089
  -Hartree energ DENC   =     -5464.00359378
  -exchange      EXHF   =       113.11958839
  -V(xc)+E(xc)   XCENC  =       144.85128653
  PAW double counting   =      3984.65358713    -3994.44684601
  entropy T*S    EENTRO =        -0.00000000
  eigenvalues    EBANDS =      -728.43035332
  atomic energy  EATOM  =      1873.55058303
  ---------------------------------------------------
  free energy    TOTEN  =      -144.60836487 eV

  energy without entropy =     -144.60836487  energy(sigma->0) =     -144.60836487
  exchange ACFDT corr.  =        -0.00000000  see jH, gK, PRB 81, 115126


--------------------------------------------------------------------------------------------------------




--------------------------------------- Iteration      1(  49)  ---------------------------------------


    POTLOK:  cpu time      0.8537: real time      0.8572
    SETDIJ:  cpu time      0.0046: real time      0.0046
    TRIAL :  cpu time      5.1766: real time      5.2062
    CORREC:  cpu time      0.0002: real time      0.0002
    CHARGE:  cpu time      0.1107: real time      0.1121
    --------------------------------------------
      LOOP:  cpu time      6.1460: real time      6.1805

 eigenvalue-minimisations  :     0
 total energy-change (2. order) :-0.4218277E-06  (-0.2907084E-05)
 number of electron      52.0000006 magnetization 
 augmentation part        1.7898904 magnetization 

 DIPCOR: dipole corrections for dipol
 direction  1 min pos     1, direction  2 min pos     1, direction  3 min pos     1,
 dipolmoment          -0.683540     -0.239368      0.507326 electrons x Angstroem
 Tr[quadrupol]        33.118905

 energy correction for charged system         0.000000 eV
 dipol+quadrupol energy correction           -0.002948 eV
 added-field ion interaction         -0.134686 eV  (added to PSCEN)


 Free energy of the ion-electron system (eV)
  ---------------------------------------------------
  alpha Z        PSCENC =         1.29324529
  Ewald energy   TEWEN  =      3924.80414089
  -Hartree energ DENC   =     -5464.00316895
  -exchange      EXHF   =       113.11958858
  -V(xc)+E(xc)   XCENC  =       144.85122270
  PAW double counting   =      3984.65370179    -3994.44695919
  entropy T*S    EENTRO =        -0.00000000
  eigenvalues    EBANDS =      -728.43071944
  atomic energy  EATOM  =      1873.55058303
  ---------------------------------------------------
  free energy    TOTEN  =      -144.60836529 eV

  energy without entropy =     -144.60836529  energy(sigma->0) =     -144.60836529
  exchange ACFDT corr.  =        -0.00000000  see jH, gK, PRB 81, 115126


--------------------------------------------------------------------------------------------------------




--------------------------------------- Iteration      1(  50)  ---------------------------------------


    POTLOK:  cpu time      0.8566: real time      0.8594
    SETDIJ:  cpu time      0.0024: real time      0.0024
    TRIAL :  cpu time      5.1803: real time      5.2102
    CORREC:  cpu time      0.0002: real time      0.0002
    CHARGE:  cpu time      0.1106: real time      0.1114
    --------------------------------------------
      LOOP:  cpu time      6.1502: real time      6.1838

 eigenvalue-minimisations  :     0
 total energy-change (2. order) :-0.2430360E-05  (-0.2669512E-05)
 number of electron      52.0000006 magnetization 
 augmentation part        1.7898903 magnetization 

 DIPCOR: dipole corrections for dipol
 direction  1 min pos     1, direction  2 min pos     1, direction  3 min pos     1,
 dipolmoment          -0.683554     -0.239323      0.507333 electrons x Angstroem
 Tr[quadrupol]        33.118738

 energy correction for charged system         0.000000 eV
 dipol+quadrupol energy correction           -0.002948 eV
 added-field ion interaction         -0.134688 eV  (added to PSCEN)


 Free energy of the ion-electron system (eV)
  ---------------------------------------------------
  alpha Z        PSCENC =         1.29324353
  Ewald energy   TEWEN  =      3924.80414089
  -Hartree energ DENC   =     -5464.00380303
  -exchange      EXHF   =       113.11960415
  -V(xc)+E(xc)   XCENC  =       144.85132693
  PAW double counting   =      3984.65434358    -3994.44759965
  entropy T*S    EENTRO =        -0.00000000
  eigenvalues    EBANDS =      -728.43020716
  atomic energy  EATOM  =      1873.55058303
  ---------------------------------------------------
  free energy    TOTEN  =      -144.60836772 eV

  energy without entropy =     -144.60836772  energy(sigma->0) =     -144.60836772
  exchange ACFDT corr.  =        -0.00000000  see jH, gK, PRB 81, 115126


--------------------------------------------------------------------------------------------------------




--------------------------------------- Iteration      1(  51)  ---------------------------------------


    POTLOK:  cpu time      0.8550: real time      0.8584
    SETDIJ:  cpu time      0.0024: real time      0.0024
    TRIAL :  cpu time      5.1691: real time      5.1981
    CORREC:  cpu time      0.0002: real time      0.0002
    CHARGE:  cpu time      0.1106: real time      0.1114
    --------------------------------------------
      LOOP:  cpu time      6.1374: real time      6.1706

 eigenvalue-minimisations  :     0
 total energy-change (2. order) : 0.9007258E-06  (-0.2705305E-05)
 number of electron      52.0000006 magnetization 
 augmentation part        1.7898904 magnetization 

 DIPCOR: dipole corrections for dipol
 direction  1 min pos     1, direction  2 min pos     1, direction  3 min pos     1,
 dipolmoment          -0.683535     -0.239343      0.507318 electrons x Angstroem
 Tr[quadrupol]        33.118979

 energy correction for charged system         0.000000 eV
 dipol+quadrupol energy correction           -0.002947 eV
 added-field ion interaction         -0.134685 eV  (added to PSCEN)


 Free energy of the ion-electron system (eV)
  ---------------------------------------------------
  alpha Z        PSCENC =         1.29324660
  Ewald energy   TEWEN  =      3924.80414089
  -Hartree energ DENC   =     -5464.00281651
  -exchange      EXHF   =       113.11959274
  -V(xc)+E(xc)   XCENC  =       144.85122499
  PAW double counting   =      3984.65387651    -3994.44713130
  entropy T*S    EENTRO =        -0.00000000
  eigenvalues    EBANDS =      -728.43108379
  atomic energy  EATOM  =      1873.55058303
  ---------------------------------------------------
  free energy    TOTEN  =      -144.60836682 eV

  energy without entropy =     -144.60836682  energy(sigma->0) =     -144.60836682
  exchange ACFDT corr.  =        -0.00000000  see jH, gK, PRB 81, 115126


--------------------------------------------------------------------------------------------------------




--------------------------------------- Iteration      1(  52)  ---------------------------------------


    POTLOK:  cpu time      0.8553: real time      0.8586
    SETDIJ:  cpu time      0.0023: real time      0.0023
    TRIAL :  cpu time      5.1648: real time      5.1937
    CORREC:  cpu time      0.0002: real time      0.0002
    CHARGE:  cpu time      0.1106: real time      0.1115
    --------------------------------------------
      LOOP:  cpu time      6.1334: real time      6.1665

 eigenvalue-minimisations  :     0
 total energy-change (2. order) :-0.1436776E-05  (-0.2649000E-05)
 number of electron      52.0000006 magnetization 
 augmentation part        1.7898897 magnetization 

 DIPCOR: dipole corrections for dipol
 direction  1 min pos     1, direction  2 min pos     1, direction  3 min pos     1,
 dipolmoment          -0.683563     -0.239335      0.507325 electrons x Angstroem
 Tr[quadrupol]        33.118707

 energy correction for charged system         0.000000 eV
 dipol+quadrupol energy correction           -0.002948 eV
 added-field ion interaction         -0.134690 eV  (added to PSCEN)


 Free energy of the ion-electron system (eV)
  ---------------------------------------------------
  alpha Z        PSCENC =         1.29324158
  Ewald energy   TEWEN  =      3924.80414089
  -Hartree energ DENC   =     -5464.00408722
  -exchange      EXHF   =       113.11962218
  -V(xc)+E(xc)   XCENC  =       144.85131645
  PAW double counting   =      3984.65490908    -3994.44816369
  entropy T*S    EENTRO =        -0.00000000
  eigenvalues    EBANDS =      -728.42993057
  atomic energy  EATOM  =      1873.55058303
  ---------------------------------------------------
  free energy    TOTEN  =      -144.60836826 eV

  energy without entropy =     -144.60836826  energy(sigma->0) =     -144.60836826
  exchange ACFDT corr.  =        -0.00000000  see jH, gK, PRB 81, 115126


--------------------------------------------------------------------------------------------------------




--------------------------------------- Iteration      1(  53)  ---------------------------------------


    POTLOK:  cpu time      0.8557: real time      0.8589
    SETDIJ:  cpu time      0.0027: real time      0.0027
    TRIAL :  cpu time      5.1707: real time      5.1995
    CORREC:  cpu time      0.0002: real time      0.0002
    CHARGE:  cpu time      0.1105: real time      0.1114
    --------------------------------------------
      LOOP:  cpu time      6.1506: real time      6.1852

 eigenvalue-minimisations  :     0
 total energy-change (2. order) :-0.5688435E-07  (-0.2755511E-05)
 number of electron      52.0000006 magnetization 
 augmentation part        1.7898899 magnetization 

 DIPCOR: dipole corrections for dipol
 direction  1 min pos     1, direction  2 min pos     1, direction  3 min pos     1,
 dipolmoment          -0.683537     -0.239329      0.507307 electrons x Angstroem
 Tr[quadrupol]        33.118990

 energy correction for charged system         0.000000 eV
 dipol+quadrupol energy correction           -0.002947 eV
 added-field ion interaction         -0.134684 eV  (added to PSCEN)


 Free energy of the ion-electron system (eV)
  ---------------------------------------------------
  alpha Z        PSCENC =         1.29324692
  Ewald energy   TEWEN  =      3924.80414089
  -Hartree energ DENC   =     -5464.00270185
  -exchange      EXHF   =       113.11960247
  -V(xc)+E(xc)   XCENC  =       144.85125000
  PAW double counting   =      3984.65388205    -3994.44713387
  entropy T*S    EENTRO =        -0.00000000
  eigenvalues    EBANDS =      -728.43123797
  atomic energy  EATOM  =      1873.55058303
  ---------------------------------------------------
  free energy    TOTEN  =      -144.60836832 eV

  energy without entropy =     -144.60836832  energy(sigma->0) =     -144.60836832
  exchange ACFDT corr.  =        -0.00000000  see jH, gK, PRB 81, 115126


--------------------------------------------------------------------------------------------------------




--------------------------------------- Iteration      1(  54)  ---------------------------------------


    POTLOK:  cpu time      0.8560: real time      0.8596
    SETDIJ:  cpu time      0.0022: real time      0.0022
    TRIAL :  cpu time      5.1606: real time      5.1907
    CORREC:  cpu time      0.0001: real time      0.0001
    CHARGE:  cpu time      0.1104: real time      0.1114
    --------------------------------------------
      LOOP:  cpu time      6.1295: real time      6.1641

 eigenvalue-minimisations  :     0
 total energy-change (2. order) :-0.9028095E-06  (-0.2475505E-05)
 number of electron      52.0000006 magnetization 
 augmentation part        1.7898899 magnetization 

 DIPCOR: dipole corrections for dipol
 direction  1 min pos     1, direction  2 min pos     1, direction  3 min pos     1,
 dipolmoment          -0.683557     -0.239334      0.507336 electrons x Angstroem
 Tr[quadrupol]        33.118696

 energy correction for charged system         0.000000 eV
 dipol+quadrupol energy correction           -0.002948 eV
 added-field ion interaction         -0.134689 eV  (added to PSCEN)


 Free energy of the ion-electron system (eV)
  ---------------------------------------------------
  alpha Z        PSCENC =         1.29324223
  Ewald energy   TEWEN  =      3924.80414089
  -Hartree energ DENC   =     -5464.00385157
  -exchange      EXHF   =       113.11962713
  -V(xc)+E(xc)   XCENC  =       144.85132821
  PAW double counting   =      3984.65517902    -3994.44843082
  entropy T*S    EENTRO =        -0.00000000
  eigenvalues    EBANDS =      -728.43018735
  atomic energy  EATOM  =      1873.55058303
  ---------------------------------------------------
  free energy    TOTEN  =      -144.60836922 eV

  energy without entropy =     -144.60836922  energy(sigma->0) =     -144.60836922
  exchange ACFDT corr.  =        -0.00000000  see jH, gK, PRB 81, 115126


--------------------------------------------------------------------------------------------------------




--------------------------------------- Iteration      1(  55)  ---------------------------------------


    POTLOK:  cpu time      0.8557: real time      0.8596
    SETDIJ:  cpu time      0.0022: real time      0.0022
    TRIAL :  cpu time      5.1768: real time      5.2113
    CORREC:  cpu time      0.0002: real time      0.0002
    CHARGE:  cpu time      0.1104: real time      0.1114
    --------------------------------------------
      LOOP:  cpu time      6.1455: real time      6.1848

 eigenvalue-minimisations  :     0
 total energy-change (2. order) : 0.4641906E-06  (-0.2298753E-05)
 number of electron      52.0000006 magnetization 
 augmentation part        1.7898896 magnetization 

 DIPCOR: dipole corrections for dipol
 direction  1 min pos     1, direction  2 min pos     1, direction  3 min pos     1,
 dipolmoment          -0.683540     -0.239339      0.507312 electrons x Angstroem
 Tr[quadrupol]        33.119005

 energy correction for charged system         0.000000 eV
 dipol+quadrupol energy correction           -0.002947 eV
 added-field ion interaction         -0.134685 eV  (added to PSCEN)


 Free energy of the ion-electron system (eV)
  ---------------------------------------------------
  alpha Z        PSCENC =         1.29324590
  Ewald energy   TEWEN  =      3924.80414089
  -Hartree energ DENC   =     -5464.00271360
  -exchange      EXHF   =       113.11960810
  -V(xc)+E(xc)   XCENC  =       144.85127321
  PAW double counting   =      3984.65410586    -3994.44735745
  entropy T*S    EENTRO =        -0.00000000
  eigenvalues    EBANDS =      -728.43125470
  atomic energy  EATOM  =      1873.55058303
  ---------------------------------------------------
  free energy    TOTEN  =      -144.60836876 eV

  energy without entropy =     -144.60836876  energy(sigma->0) =     -144.60836876
  exchange ACFDT corr.  =        -0.00000000  see jH, gK, PRB 81, 115126


--------------------------------------------------------------------------------------------------------




--------------------------------------- Iteration      1(  56)  ---------------------------------------


    POTLOK:  cpu time      0.8816: real time      0.8854
    SETDIJ:  cpu time      0.0023: real time      0.0023
    TRIAL :  cpu time      5.1496: real time      5.1832
    CORREC:  cpu time      0.0002: real time      0.0001
    CHARGE:  cpu time      0.1104: real time      0.1114
    --------------------------------------------
      LOOP:  cpu time      6.1442: real time      6.1825

 eigenvalue-minimisations  :     0
 total energy-change (2. order) :-0.6596620E-06  (-0.1997587E-05)
 number of electron      52.0000006 magnetization 
 augmentation part        1.7898898 magnetization 

 DIPCOR: dipole corrections for dipol
 direction  1 min pos     1, direction  2 min pos     1, direction  3 min pos     1,
 dipolmoment          -0.683554     -0.239325      0.507320 electrons x Angstroem
 Tr[quadrupol]        33.118738

 energy correction for charged system         0.000000 eV
 dipol+quadrupol energy correction           -0.002947 eV
 added-field ion interaction         -0.134687 eV  (added to PSCEN)


 Free energy of the ion-electron system (eV)
  ---------------------------------------------------
  alpha Z        PSCENC =         1.29324465
  Ewald energy   TEWEN  =      3924.80414089
  -Hartree energ DENC   =     -5464.00359373
  -exchange      EXHF   =       113.11963245
  -V(xc)+E(xc)   XCENC  =       144.85128467
  PAW double counting   =      3984.65532166    -3994.44857137
  entropy T*S    EENTRO =        -0.00000000
  eigenvalues    EBANDS =      -728.43041169
  atomic energy  EATOM  =      1873.55058303
  ---------------------------------------------------
  free energy    TOTEN  =      -144.60836942 eV

  energy without entropy =     -144.60836942  energy(sigma->0) =     -144.60836942
  exchange ACFDT corr.  =        -0.00000000  see jH, gK, PRB 81, 115126


--------------------------------------------------------------------------------------------------------




--------------------------------------- Iteration      1(  57)  ---------------------------------------


    POTLOK:  cpu time      0.8528: real time      0.8566
    SETDIJ:  cpu time      0.0049: real time      0.0050
    TRIAL :  cpu time      5.1509: real time      5.1851
    CORREC:  cpu time      0.0001: real time      0.0001
    CHARGE:  cpu time      0.1102: real time      0.1116
    --------------------------------------------
      LOOP:  cpu time      6.1191: real time      6.1586

 eigenvalue-minimisations  :     0
 total energy-change (2. order) :-0.6068803E-06  (-0.1891325E-05)
 number of electron      52.0000006 magnetization 
 augmentation part        1.7898897 magnetization 

 DIPCOR: dipole corrections for dipol
 direction  1 min pos     1, direction  2 min pos     1, direction  3 min pos     1,
 dipolmoment          -0.683552     -0.239333      0.507313 electrons x Angstroem
 Tr[quadrupol]        33.118885

 energy correction for charged system         0.000000 eV
 dipol+quadrupol energy correction           -0.002947 eV
 added-field ion interaction         -0.134687 eV  (added to PSCEN)


 Free energy of the ion-electron system (eV)
  ---------------------------------------------------
  alpha Z        PSCENC =         1.29324457
  Ewald energy   TEWEN  =      3924.80414089
  -Hartree energ DENC   =     -5464.00351490
  -exchange      EXHF   =       113.11963328
  -V(xc)+E(xc)   XCENC  =       144.85132556
  PAW double counting   =      3984.65518806    -3994.44843813
  entropy T*S    EENTRO =        -0.00000000
  eigenvalues    EBANDS =      -728.43053239
  atomic energy  EATOM  =      1873.55058303
  ---------------------------------------------------
  free energy    TOTEN  =      -144.60837002 eV

  energy without entropy =     -144.60837002  energy(sigma->0) =     -144.60837002
  exchange ACFDT corr.  =        -0.00000000  see jH, gK, PRB 81, 115126


--------------------------------------------------------------------------------------------------------




--------------------------------------- Iteration      1(  58)  ---------------------------------------


    POTLOK:  cpu time      0.8557: real time      0.8592
    SETDIJ:  cpu time      0.0022: real time      0.0022
    TRIAL :  cpu time      5.1662: real time      5.2002
    CORREC:  cpu time      0.0001: real time      0.0001
    CHARGE:  cpu time      0.1104: real time      0.1113
    --------------------------------------------
      LOOP:  cpu time      6.1349: real time      6.1733

 eigenvalue-minimisations  :     0
 total energy-change (2. order) :-0.4114950E-06  (-0.2014525E-05)
 number of electron      52.0000006 magnetization 
 augmentation part        1.7898897 magnetization 

 DIPCOR: dipole corrections for dipol
 direction  1 min pos     1, direction  2 min pos     1, direction  3 min pos     1,
 dipolmoment          -0.683543     -0.239330      0.507321 electrons x Angstroem
 Tr[quadrupol]        33.118740

 energy correction for charged system         0.000000 eV
 dipol+quadrupol energy correction           -0.002947 eV
 added-field ion interaction         -0.134686 eV  (added to PSCEN)


 Free energy of the ion-electron system (eV)
  ---------------------------------------------------
  alpha Z        PSCENC =         1.29324539
  Ewald energy   TEWEN  =      3924.80414089
  -Hartree energ DENC   =     -5464.00334599
  -exchange      EXHF   =       113.11963471
  -V(xc)+E(xc)   XCENC  =       144.85128060
  PAW double counting   =      3984.65580925    -3994.44905861
  entropy T*S    EENTRO =        -0.00000000
  eigenvalues    EBANDS =      -728.43065971
  atomic energy  EATOM  =      1873.55058303
  ---------------------------------------------------
  free energy    TOTEN  =      -144.60837043 eV

  energy without entropy =     -144.60837043  energy(sigma->0) =     -144.60837043
  exchange ACFDT corr.  =        -0.00000000  see jH, gK, PRB 81, 115126


--------------------------------------------------------------------------------------------------------




--------------------------------------- Iteration      1(  59)  ---------------------------------------


    POTLOK:  cpu time      0.8584: real time      0.8623
    SETDIJ:  cpu time      0.0021: real time      0.0021
    TRIAL :  cpu time      5.1944: real time      5.2284
    CORREC:  cpu time      0.0001: real time      0.0001
    CHARGE:  cpu time      0.1103: real time      0.1113
    --------------------------------------------
      LOOP:  cpu time      6.1656: real time      6.2044

 eigenvalue-minimisations  :     0
 total energy-change (2. order) : 0.4596677E-07  (-0.1901803E-05)
 number of electron      52.0000006 magnetization 
 augmentation part        1.7898894 magnetization 

 DIPCOR: dipole corrections for dipol
 direction  1 min pos     1, direction  2 min pos     1, direction  3 min pos     1,
 dipolmoment          -0.683555     -0.239335      0.507314 electrons x Angstroem
 Tr[quadrupol]        33.118898

 energy correction for charged system         0.000000 eV
 dipol+quadrupol energy correction           -0.002948 eV
 added-field ion interaction         -0.134687 eV  (added to PSCEN)


 Free energy of the ion-electron system (eV)
  ---------------------------------------------------
  alpha Z        PSCENC =         1.29324383
  Ewald energy   TEWEN  =      3924.80414089
  -Hartree energ DENC   =     -5464.00347021
  -exchange      EXHF   =       113.11963628
  -V(xc)+E(xc)   XCENC  =       144.85130503
  PAW double counting   =      3984.65562771    -3994.44887684
  entropy T*S    EENTRO =        -0.00000000
  eigenvalues    EBANDS =      -728.43056011
  atomic energy  EATOM  =      1873.55058303
  ---------------------------------------------------
  free energy    TOTEN  =      -144.60837039 eV

  energy without entropy =     -144.60837039  energy(sigma->0) =     -144.60837039
  exchange ACFDT corr.  =        -0.00000000  see jH, gK, PRB 81, 115126


--------------------------------------------------------------------------------------------------------




--------------------------------------- Iteration      1(  60)  ---------------------------------------


    POTLOK:  cpu time      0.8559: real time      0.8597
    SETDIJ:  cpu time      0.0022: real time      0.0022
    TRIAL :  cpu time      5.1493: real time      5.1833
    CORREC:  cpu time      0.0002: real time      0.0003
    CHARGE:  cpu time      0.1102: real time      0.1116
    --------------------------------------------
      LOOP:  cpu time      6.1180: real time      6.1573

 eigenvalue-minimisations  :     0
 total energy-change (2. order) :-0.9706864E-06  (-0.1816265E-05)
 number of electron      52.0000006 magnetization 
 augmentation part        1.7898897 magnetization 

 DIPCOR: dipole corrections for dipol
 direction  1 min pos     1, direction  2 min pos     1, direction  3 min pos     1,
 dipolmoment          -0.683553     -0.239314      0.507308 electrons x Angstroem
 Tr[quadrupol]        33.118734

 energy correction for charged system         0.000000 eV
 dipol+quadrupol energy correction           -0.002948 eV
 added-field ion interaction         -0.134687 eV  (added to PSCEN)


 Free energy of the ion-electron system (eV)
  ---------------------------------------------------
  alpha Z        PSCENC =         1.29324410
  Ewald energy   TEWEN  =      3924.80414089
  -Hartree energ DENC   =     -5464.00381249
  -exchange      EXHF   =       113.11965164
  -V(xc)+E(xc)   XCENC  =       144.85132885
  PAW double counting   =      3984.65631182    -3994.44955958
  entropy T*S    EENTRO =        -0.00000000
  eigenvalues    EBANDS =      -728.43025962
  atomic energy  EATOM  =      1873.55058303
  ---------------------------------------------------
  free energy    TOTEN  =      -144.60837136 eV

  energy without entropy =     -144.60837136  energy(sigma->0) =     -144.60837136
  exchange ACFDT corr.  =        -0.00000000  see jH, gK, PRB 81, 115126


--------------------------------------------------------------------------------------------------------




--------------------------------------- Iteration      1(  61)  ---------------------------------------


    POTLOK:  cpu time      0.8560: real time      0.8593
    SETDIJ:  cpu time      0.0026: real time      0.0026
    TRIAL :  cpu time      5.1450: real time      5.1792
    CORREC:  cpu time      0.0001: real time      0.0002
    CHARGE:  cpu time      0.1104: real time      0.1113
    --------------------------------------------
      LOOP:  cpu time      6.1144: real time      6.1528

 eigenvalue-minimisations  :     0
 total energy-change (2. order) :-0.8280308E-06  (-0.1861769E-05)
 number of electron      52.0000006 magnetization 
 augmentation part        1.7898893 magnetization 

 DIPCOR: dipole corrections for dipol
 direction  1 min pos     1, direction  2 min pos     1, direction  3 min pos     1,
 dipolmoment          -0.683544     -0.239341      0.507330 electrons x Angstroem
 Tr[quadrupol]        33.118877

 energy correction for charged system         0.000000 eV
 dipol+quadrupol energy correction           -0.002948 eV
 added-field ion interaction         -0.134687 eV  (added to PSCEN)


 Free energy of the ion-electron system (eV)
  ---------------------------------------------------
  alpha Z        PSCENC =         1.29324411
  Ewald energy   TEWEN  =      3924.80414089
  -Hartree energ DENC   =     -5464.00303763
  -exchange      EXHF   =       113.11963423
  -V(xc)+E(xc)   XCENC  =       144.85129374
  PAW double counting   =      3984.65578632    -3994.44903457
  entropy T*S    EENTRO =        -0.00000000
  eigenvalues    EBANDS =      -728.43098231
  atomic energy  EATOM  =      1873.55058303
  ---------------------------------------------------
  free energy    TOTEN  =      -144.60837219 eV

  energy without entropy =     -144.60837219  energy(sigma->0) =     -144.60837219
  exchange ACFDT corr.  =        -0.00000000  see jH, gK, PRB 81, 115126


--------------------------------------------------------------------------------------------------------




--------------------------------------- Iteration      1(  62)  ---------------------------------------


    POTLOK:  cpu time      0.8558: real time      0.8596
    SETDIJ:  cpu time      0.0021: real time      0.0021
    TRIAL :  cpu time      5.1506: real time      5.1825
    CORREC:  cpu time      0.0001: real time      0.0001
    CHARGE:  cpu time      0.1104: real time      0.1113
    --------------------------------------------
      LOOP:  cpu time      6.1192: real time      6.1559

 eigenvalue-minimisations  :     0
 total energy-change (2. order) :-0.1723633E-06  (-0.1951470E-05)
 number of electron      52.0000006 magnetization 
 augmentation part        1.7898903 magnetization 

 DIPCOR: dipole corrections for dipol
 direction  1 min pos     1, direction  2 min pos     1, direction  3 min pos     1,
 dipolmoment          -0.683560     -0.239312      0.507301 electrons x Angstroem
 Tr[quadrupol]        33.118762

 energy correction for charged system         0.000000 eV
 dipol+quadrupol energy correction           -0.002947 eV
 added-field ion interaction         -0.134687 eV  (added to PSCEN)


 Free energy of the ion-electron system (eV)
  ---------------------------------------------------
  alpha Z        PSCENC =         1.29324449
  Ewald energy   TEWEN  =      3924.80414089
  -Hartree energ DENC   =     -5464.00348661
  -exchange      EXHF   =       113.11964602
  -V(xc)+E(xc)   XCENC  =       144.85130329
  PAW double counting   =      3984.65624727    -3994.44949402
  entropy T*S    EENTRO =        -0.00000000
  eigenvalues    EBANDS =      -728.43055672
  atomic energy  EATOM  =      1873.55058303
  ---------------------------------------------------
  free energy    TOTEN  =      -144.60837236 eV

  energy without entropy =     -144.60837236  energy(sigma->0) =     -144.60837236
  exchange ACFDT corr.  =        -0.00000000  see jH, gK, PRB 81, 115126


--------------------------------------------------------------------------------------------------------




--------------------------------------- Iteration      1(  63)  ---------------------------------------


    POTLOK:  cpu time      0.8563: real time      0.8595
    SETDIJ:  cpu time      0.0023: real time      0.0023
    TRIAL :  cpu time      5.1600: real time      5.1890
    CORREC:  cpu time      0.0001: real time      0.0003
    CHARGE:  cpu time      0.1104: real time      0.1111
    --------------------------------------------
      LOOP:  cpu time      6.1398: real time      6.1749

 eigenvalue-minimisations  :     0
 total energy-change (2. order) : 0.2556285E-06  (-0.2048281E-05)
 number of electron      52.0000006 magnetization 
 augmentation part        1.7898894 magnetization 

 DIPCOR: dipole corrections for dipol
 direction  1 min pos     1, direction  2 min pos     1, direction  3 min pos     1,
 dipolmoment          -0.683548     -0.239337      0.507327 electrons x Angstroem
 Tr[quadrupol]        33.118866

 energy correction for charged system         0.000000 eV
 dipol+quadrupol energy correction           -0.002948 eV
 added-field ion interaction         -0.134688 eV  (added to PSCEN)


 Free energy of the ion-electron system (eV)
  ---------------------------------------------------
  alpha Z        PSCENC =         1.29324374
  Ewald energy   TEWEN  =      3924.80414089
  -Hartree energ DENC   =     -5464.00385869
  -exchange      EXHF   =       113.11966002
  -V(xc)+E(xc)   XCENC  =       144.85132637
  PAW double counting   =      3984.65695941    -3994.45020875
  entropy T*S    EENTRO =        -0.00000000
  eigenvalues    EBANDS =      -728.43021813
  atomic energy  EATOM  =      1873.55058303
  ---------------------------------------------------
  free energy    TOTEN  =      -144.60837210 eV

  energy without entropy =     -144.60837210  energy(sigma->0) =     -144.60837210
  exchange ACFDT corr.  =        -0.00000000  see jH, gK, PRB 81, 115126


--------------------------------------------------------------------------------------------------------




--------------------------------------- Iteration      1(  64)  ---------------------------------------


    POTLOK:  cpu time      0.8549: real time      0.8581
    SETDIJ:  cpu time      0.0025: real time      0.0025
    TRIAL :  cpu time      5.1655: real time      5.1970
    CORREC:  cpu time      0.0001: real time      0.0001
    CHARGE:  cpu time      0.1105: real time      0.1114
    --------------------------------------------
      LOOP:  cpu time      6.1338: real time      6.1693

 eigenvalue-minimisations  :     0
 total energy-change (2. order) :-0.4190579E-06  (-0.1700693E-05)
 number of electron      52.0000006 magnetization 
 augmentation part        1.7898897 magnetization 

 DIPCOR: dipole corrections for dipol
 direction  1 min pos     1, direction  2 min pos     1, direction  3 min pos     1,
 dipolmoment          -0.683554     -0.239309      0.507310 electrons x Angstroem
 Tr[quadrupol]        33.118714

 energy correction for charged system         0.000000 eV
 dipol+quadrupol energy correction           -0.002948 eV
 added-field ion interaction         -0.134687 eV  (added to PSCEN)


 Free energy of the ion-electron system (eV)
  ---------------------------------------------------
  alpha Z        PSCENC =         1.29324417
  Ewald energy   TEWEN  =      3924.80414089
  -Hartree energ DENC   =     -5464.00340621
  -exchange      EXHF   =       113.11965040
  -V(xc)+E(xc)   XCENC  =       144.85128926
  PAW double counting   =      3984.65702281    -3994.45026879
  entropy T*S    EENTRO =        -0.00000000
  eigenvalues    EBANDS =      -728.43062808
  atomic energy  EATOM  =      1873.55058303
  ---------------------------------------------------
  free energy    TOTEN  =      -144.60837252 eV

  energy without entropy =     -144.60837252  energy(sigma->0) =     -144.60837252
  exchange ACFDT corr.  =        -0.00000000  see jH, gK, PRB 81, 115126


--------------------------------------------------------------------------------------------------------




--------------------------------------- Iteration      1(  65)  ---------------------------------------


    POTLOK:  cpu time      0.8520: real time      0.8552
    SETDIJ:  cpu time      0.0060: real time      0.0060
    TRIAL :  cpu time      5.1555: real time      5.1847
    CORREC:  cpu time      0.0001: real time      0.0001
    CHARGE:  cpu time      0.1105: real time      0.1113
    --------------------------------------------
      LOOP:  cpu time      6.1243: real time      6.1575

 eigenvalue-minimisations  :     0
 total energy-change (2. order) :-0.2630031E-07  (-0.1293488E-05)
 number of electron      52.0000006 magnetization 
 augmentation part        1.7898899 magnetization 

 DIPCOR: dipole corrections for dipol
 direction  1 min pos     1, direction  2 min pos     1, direction  3 min pos     1,
 dipolmoment          -0.683554     -0.239333      0.507312 electrons x Angstroem
 Tr[quadrupol]        33.118878

 energy correction for charged system         0.000000 eV
 dipol+quadrupol energy correction           -0.002948 eV
 added-field ion interaction         -0.134687 eV  (added to PSCEN)


 Free energy of the ion-electron system (eV)
  ---------------------------------------------------
  alpha Z        PSCENC =         1.29324416
  Ewald energy   TEWEN  =      3924.80414089
  -Hartree energ DENC   =     -5464.00364547
  -exchange      EXHF   =       113.11965726
  -V(xc)+E(xc)   XCENC  =       144.85131865
  PAW double counting   =      3984.65702685    -3994.45027393
  entropy T*S    EENTRO =        -0.00000000
  eigenvalues    EBANDS =      -728.43042400
  atomic energy  EATOM  =      1873.55058303
  ---------------------------------------------------
  free energy    TOTEN  =      -144.60837255 eV

  energy without entropy =     -144.60837255  energy(sigma->0) =     -144.60837255
  exchange ACFDT corr.  =        -0.00000000  see jH, gK, PRB 81, 115126


--------------------------------------------------------------------------------------------------------




--------------------------------------- Iteration      1(  66)  ---------------------------------------


    POTLOK:  cpu time      0.8559: real time      0.8590
    SETDIJ:  cpu time      0.0024: real time      0.0025
    TRIAL :  cpu time      5.1542: real time      5.1835
    CORREC:  cpu time      0.0001: real time      0.0001
    CHARGE:  cpu time      0.1103: real time      0.1111
    --------------------------------------------
      LOOP:  cpu time      6.1231: real time      6.1564

 eigenvalue-minimisations  :     0
 total energy-change (2. order) : 0.8022735E-06  (-0.1320104E-05)
 number of electron      52.0000006 magnetization 
 augmentation part        1.7898895 magnetization 

 DIPCOR: dipole corrections for dipol
 direction  1 min pos     1, direction  2 min pos     1, direction  3 min pos     1,
 dipolmoment          -0.683551     -0.239316      0.507325 electrons x Angstroem
 Tr[quadrupol]        33.118707

 energy correction for charged system         0.000000 eV
 dipol+quadrupol energy correction           -0.002948 eV
 added-field ion interaction         -0.134687 eV  (added to PSCEN)


 Free energy of the ion-electron system (eV)
  ---------------------------------------------------
  alpha Z        PSCENC =         1.29324381
  Ewald energy   TEWEN  =      3924.80414089
  -Hartree energ DENC   =     -5464.00384042
  -exchange      EXHF   =       113.11966367
  -V(xc)+E(xc)   XCENC  =       144.85135604
  PAW double counting   =      3984.65755879    -3994.45080610
  entropy T*S    EENTRO =        -0.00000000
  eigenvalues    EBANDS =      -728.43027145
  atomic energy  EATOM  =      1873.55058303
  ---------------------------------------------------
  free energy    TOTEN  =      -144.60837175 eV

  energy without entropy =     -144.60837175  energy(sigma->0) =     -144.60837175
  exchange ACFDT corr.  =        -0.00000000  see jH, gK, PRB 81, 115126


--------------------------------------------------------------------------------------------------------




--------------------------------------- Iteration      1(  67)  ---------------------------------------


    POTLOK:  cpu time      0.8532: real time      0.8566
    SETDIJ:  cpu time      0.0050: real time      0.0051
    TRIAL :  cpu time      5.1655: real time      5.1948
    CORREC:  cpu time      0.0001: real time      0.0001
    CHARGE:  cpu time      0.1104: real time      0.1112
    --------------------------------------------
      LOOP:  cpu time      6.1344: real time      6.1680

 eigenvalue-minimisations  :     0
 total energy-change (2. order) :-0.2546053E-06  (-0.1430590E-05)
 number of electron      52.0000006 magnetization 
 augmentation part        1.7898902 magnetization 

 DIPCOR: dipole corrections for dipol
 direction  1 min pos     1, direction  2 min pos     1, direction  3 min pos     1,
 dipolmoment          -0.683556     -0.239323      0.507308 electrons x Angstroem
 Tr[quadrupol]        33.118983

 energy correction for charged system         0.000000 eV
 dipol+quadrupol energy correction           -0.002947 eV
 added-field ion interaction         -0.134687 eV  (added to PSCEN)


 Free energy of the ion-electron system (eV)
  ---------------------------------------------------
  alpha Z        PSCENC =         1.29324420
  Ewald energy   TEWEN  =      3924.80414089
  -Hartree energ DENC   =     -5464.00281184
  -exchange      EXHF   =       113.11964690
  -V(xc)+E(xc)   XCENC  =       144.85126273
  PAW double counting   =      3984.65678797    -3994.45003338
  entropy T*S    EENTRO =        -0.00000000
  eigenvalues    EBANDS =      -728.43119249
  atomic energy  EATOM  =      1873.55058303
  ---------------------------------------------------
  free energy    TOTEN  =      -144.60837200 eV

  energy without entropy =     -144.60837200  energy(sigma->0) =     -144.60837200
  exchange ACFDT corr.  =        -0.00000000  see jH, gK, PRB 81, 115126


--------------------------------------------------------------------------------------------------------




--------------------------------------- Iteration      1(  68)  ---------------------------------------


    POTLOK:  cpu time      0.8554: real time      0.8587
    SETDIJ:  cpu time      0.0025: real time      0.0025
    TRIAL :  cpu time      5.1633: real time      5.1923
    CORREC:  cpu time      0.0002: real time      0.0002
    CHARGE:  cpu time      0.1105: real time      0.1113
    --------------------------------------------
      LOOP:  cpu time      6.1321: real time      6.1651

 eigenvalue-minimisations  :     0
 total energy-change (2. order) :-0.8456554E-06  (-0.1620106E-05)
 number of electron      52.0000006 magnetization 
 augmentation part        1.7898889 magnetization 

 DIPCOR: dipole corrections for dipol
 direction  1 min pos     1, direction  2 min pos     1, direction  3 min pos     1,
 dipolmoment          -0.683563     -0.239309      0.507317 electrons x Angstroem
 Tr[quadrupol]        33.118606

 energy correction for charged system         0.000000 eV
 dipol+quadrupol energy correction           -0.002948 eV
 added-field ion interaction         -0.134688 eV  (added to PSCEN)


 Free energy of the ion-electron system (eV)
  ---------------------------------------------------
  alpha Z        PSCENC =         1.29324322
  Ewald energy   TEWEN  =      3924.80414089
  -Hartree energ DENC   =     -5464.00481560
  -exchange      EXHF   =       113.11968931
  -V(xc)+E(xc)   XCENC  =       144.85139738
  PAW double counting   =      3984.65882174    -3994.45206937
  entropy T*S    EENTRO =        -0.00000000
  eigenvalues    EBANDS =      -728.42936345
  atomic energy  EATOM  =      1873.55058303
  ---------------------------------------------------
  free energy    TOTEN  =      -144.60837285 eV

  energy without entropy =     -144.60837285  energy(sigma->0) =     -144.60837285
  exchange ACFDT corr.  =        -0.00000000  see jH, gK, PRB 81, 115126


--------------------------------------------------------------------------------------------------------




--------------------------------------- Iteration      1(  69)  ---------------------------------------


    POTLOK:  cpu time      0.8556: real time      0.8589
    SETDIJ:  cpu time      0.0023: real time      0.0023
    TRIAL :  cpu time      5.1765: real time      5.2054
    CORREC:  cpu time      0.0001: real time      0.0001
    CHARGE:  cpu time      0.1104: real time      0.1113
    --------------------------------------------
      LOOP:  cpu time      6.1452: real time      6.1782

 eigenvalue-minimisations  :     0
 total energy-change (2. order) :-0.1807580E-06  (-0.1658792E-05)
 number of electron      52.0000006 magnetization 
 augmentation part        1.7898905 magnetization 

 DIPCOR: dipole corrections for dipol
 direction  1 min pos     1, direction  2 min pos     1, direction  3 min pos     1,
 dipolmoment          -0.683547     -0.239335      0.507314 electrons x Angstroem
 Tr[quadrupol]        33.119053

 energy correction for charged system         0.000000 eV
 dipol+quadrupol energy correction           -0.002948 eV
 added-field ion interaction         -0.134686 eV  (added to PSCEN)


 Free energy of the ion-electron system (eV)
  ---------------------------------------------------
  alpha Z        PSCENC =         1.29324490
  Ewald energy   TEWEN  =      3924.80414089
  -Hartree energ DENC   =     -5464.00190175
  -exchange      EXHF   =       113.11962572
  -V(xc)+E(xc)   XCENC  =       144.85125655
  PAW double counting   =      3984.65596149    -3994.44920460
  entropy T*S    EENTRO =        -0.00000000
  eigenvalues    EBANDS =      -728.43207928
  atomic energy  EATOM  =      1873.55058303
  ---------------------------------------------------
  free energy    TOTEN  =      -144.60837303 eV

  energy without entropy =     -144.60837303  energy(sigma->0) =     -144.60837303
  exchange ACFDT corr.  =        -0.00000000  see jH, gK, PRB 81, 115126


--------------------------------------------------------------------------------------------------------




--------------------------------------- Iteration      1(  70)  ---------------------------------------


    POTLOK:  cpu time      0.8557: real time      0.8588
    SETDIJ:  cpu time      0.0023: real time      0.0023
    TRIAL :  cpu time      5.1706: real time      5.1995
    CORREC:  cpu time      0.0001: real time      0.0001
    CHARGE:  cpu time      0.1109: real time      0.1117
    --------------------------------------------
      LOOP:  cpu time      6.1398: real time      6.1726

 eigenvalue-minimisations  :     0
 total energy-change (2. order) : 0.3683890E-06  (-0.1193195E-05)
 number of electron      52.0000006 magnetization 
 augmentation part        1.7898897 magnetization 

 DIPCOR: dipole corrections for dipol
 direction  1 min pos     1, direction  2 min pos     1, direction  3 min pos     1,
 dipolmoment          -0.683558     -0.239298      0.507320 electrons x Angstroem
 Tr[quadrupol]        33.118660

 energy correction for charged system         0.000000 eV
 dipol+quadrupol energy correction           -0.002948 eV
 added-field ion interaction         -0.134688 eV  (added to PSCEN)


 Free energy of the ion-electron system (eV)
  ---------------------------------------------------
  alpha Z        PSCENC =         1.29324348
  Ewald energy   TEWEN  =      3924.80414089
  -Hartree energ DENC   =     -5464.00475909
  -exchange      EXHF   =       113.11969429
  -V(xc)+E(xc)   XCENC  =       144.85131874
  PAW double counting   =      3984.65894785    -3994.45219623
  entropy T*S    EENTRO =        -0.00000000
  eigenvalues    EBANDS =      -728.42934563
  atomic energy  EATOM  =      1873.55058303
  ---------------------------------------------------
  free energy    TOTEN  =      -144.60837266 eV

  energy without entropy =     -144.60837266  energy(sigma->0) =     -144.60837266
  exchange ACFDT corr.  =        -0.00000000  see jH, gK, PRB 81, 115126


--------------------------------------------------------------------------------------------------------




--------------------------------------- Iteration      1(  71)  ---------------------------------------


    POTLOK:  cpu time      0.8563: real time      0.8595
    SETDIJ:  cpu time      0.0021: real time      0.0021
    TRIAL :  cpu time      5.1628: real time      5.1916
    CORREC:  cpu time      0.0001: real time      0.0001
    CHARGE:  cpu time      0.1104: real time      0.1113
    --------------------------------------------
      LOOP:  cpu time      6.1319: real time      6.1648

 eigenvalue-minimisations  :     0
 total energy-change (2. order) :-0.4210319E-06  (-0.1342823E-05)
 number of electron      52.0000006 magnetization 
 augmentation part        1.7898894 magnetization 

 DIPCOR: dipole corrections for dipol
 direction  1 min pos     1, direction  2 min pos     1, direction  3 min pos     1,
 dipolmoment          -0.683556     -0.239328      0.507315 electrons x Angstroem
 Tr[quadrupol]        33.118811

 energy correction for charged system         0.000000 eV
 dipol+quadrupol energy correction           -0.002947 eV
 added-field ion interaction         -0.134687 eV  (added to PSCEN)


 Free energy of the ion-electron system (eV)
  ---------------------------------------------------
  alpha Z        PSCENC =         1.29324475
  Ewald energy   TEWEN  =      3924.80414089
  -Hartree energ DENC   =     -5464.00373327
  -exchange      EXHF   =       113.11967213
  -V(xc)+E(xc)   XCENC  =       144.85141948
  PAW double counting   =      3984.65831442    -3994.45155967
  entropy T*S    EENTRO =        -0.00000000
  eigenvalues    EBANDS =      -728.43045484
  atomic energy  EATOM  =      1873.55058303
  ---------------------------------------------------
  free energy    TOTEN  =      -144.60837308 eV

  energy without entropy =     -144.60837308  energy(sigma->0) =     -144.60837308
  exchange ACFDT corr.  =        -0.00000000  see jH, gK, PRB 81, 115126


--------------------------------------------------------------------------------------------------------




--------------------------------------- Iteration      1(  72)  ---------------------------------------


    POTLOK:  cpu time      0.8548: real time      0.8580
    SETDIJ:  cpu time      0.0025: real time      0.0025
    TRIAL :  cpu time      5.1408: real time      5.1722
    CORREC:  cpu time      0.0001: real time      0.0001
    CHARGE:  cpu time      0.1105: real time      0.1113
    --------------------------------------------
      LOOP:  cpu time      6.1089: real time      6.1443

 eigenvalue-minimisations  :     0
 total energy-change (2. order) : 0.1035705E-05  (-0.1617792E-05)
 number of electron      52.0000006 magnetization 
 augmentation part        1.7898905 magnetization 

 DIPCOR: dipole corrections for dipol
 direction  1 min pos     1, direction  2 min pos     1, direction  3 min pos     1,
 dipolmoment          -0.683554     -0.239311      0.507317 electrons x Angstroem
 Tr[quadrupol]        33.118860

 energy correction for charged system         0.000000 eV
 dipol+quadrupol energy correction           -0.002947 eV
 added-field ion interaction         -0.134687 eV  (added to PSCEN)


 Free energy of the ion-electron system (eV)
  ---------------------------------------------------
  alpha Z        PSCENC =         1.29324439
  Ewald energy   TEWEN  =      3924.80414089
  -Hartree energ DENC   =     -5464.00257676
  -exchange      EXHF   =       113.11964488
  -V(xc)+E(xc)   XCENC  =       144.85115660
  PAW double counting   =      3984.65729272    -3994.45053670
  entropy T*S    EENTRO =        -0.00000000
  eigenvalues    EBANDS =      -728.43132109
  atomic energy  EATOM  =      1873.55058303
  ---------------------------------------------------
  free energy    TOTEN  =      -144.60837204 eV

  energy without entropy =     -144.60837204  energy(sigma->0) =     -144.60837204
  exchange ACFDT corr.  =        -0.00000000  see jH, gK, PRB 81, 115126


--------------------------------------------------------------------------------------------------------




--------------------------------------- Iteration      1(  73)  ---------------------------------------


    POTLOK:  cpu time      0.8568: real time      0.8602
    SETDIJ:  cpu time      0.0022: real time      0.0022
    TRIAL :  cpu time      5.1458: real time      5.1758
    CORREC:  cpu time      0.0002: real time      0.0002
    CHARGE:  cpu time      0.1109: real time      0.1117
    --------------------------------------------
      LOOP:  cpu time      6.1164: real time      6.1567

 eigenvalue-minimisations  :     0
 total energy-change (2. order) :-0.1251170E-05  (-0.1594820E-05)
 number of electron      52.0000006 magnetization 
 augmentation part        1.7898894 magnetization 

 DIPCOR: dipole corrections for dipol
 direction  1 min pos     1, direction  2 min pos     1, direction  3 min pos     1,
 dipolmoment          -0.683550     -0.239326      0.507319 electrons x Angstroem
 Tr[quadrupol]        33.118662

 energy correction for charged system         0.000000 eV
 dipol+quadrupol energy correction           -0.002948 eV
 added-field ion interaction         -0.134687 eV  (added to PSCEN)


 Free energy of the ion-electron system (eV)
  ---------------------------------------------------
  alpha Z        PSCENC =         1.29324446
  Ewald energy   TEWEN  =      3924.80414089
  -Hartree energ DENC   =     -5464.00529854
  -exchange      EXHF   =       113.11971054
  -V(xc)+E(xc)   XCENC  =       144.85149369
  PAW double counting   =      3984.65998408    -3994.45323177
  entropy T*S    EENTRO =        -0.00000000
  eigenvalues    EBANDS =      -728.42899968
  atomic energy  EATOM  =      1873.55058303
  ---------------------------------------------------
  free energy    TOTEN  =      -144.60837330 eV

  energy without entropy =     -144.60837330  energy(sigma->0) =     -144.60837330
  exchange ACFDT corr.  =        -0.00000000  see jH, gK, PRB 81, 115126


--------------------------------------------------------------------------------------------------------




--------------------------------------- Iteration      1(  74)  ---------------------------------------


    POTLOK:  cpu time      0.8553: real time      0.8586
    SETDIJ:  cpu time      0.0021: real time      0.0021
    TRIAL :  cpu time      5.1729: real time      5.2017
    CORREC:  cpu time      0.0001: real time      0.0001
    CHARGE:  cpu time      0.1104: real time      0.1113
    --------------------------------------------
      LOOP:  cpu time      6.1410: real time      6.1740

 eigenvalue-minimisations  :     0
 total energy-change (2. order) :-0.5282618E-06  (-0.1576943E-05)
 number of electron      52.0000006 magnetization 
 augmentation part        1.7898900 magnetization 

 DIPCOR: dipole corrections for dipol
 direction  1 min pos     1, direction  2 min pos     1, direction  3 min pos     1,
 dipolmoment          -0.683569     -0.239297      0.507315 electrons x Angstroem
 Tr[quadrupol]        33.118819

 energy correction for charged system         0.000000 eV
 dipol+quadrupol energy correction           -0.002948 eV
 added-field ion interaction         -0.134689 eV  (added to PSCEN)


 Free energy of the ion-electron system (eV)
  ---------------------------------------------------
  alpha Z        PSCENC =         1.29324235
  Ewald energy   TEWEN  =      3924.80414089
  -Hartree energ DENC   =     -5464.00294019
  -exchange      EXHF   =       113.11965685
  -V(xc)+E(xc)   XCENC  =       144.85121170
  PAW double counting   =      3984.65808337    -3994.45132709
  entropy T*S    EENTRO =        -0.00000000
  eigenvalues    EBANDS =      -728.43102474
  atomic energy  EATOM  =      1873.55058303
  ---------------------------------------------------
  free energy    TOTEN  =      -144.60837382 eV

  energy without entropy =     -144.60837382  energy(sigma->0) =     -144.60837382
  exchange ACFDT corr.  =        -0.00000000  see jH, gK, PRB 81, 115126


--------------------------------------------------------------------------------------------------------




--------------------------------------- Iteration      1(  75)  ---------------------------------------


    POTLOK:  cpu time      0.8549: real time      0.8584
    SETDIJ:  cpu time      0.0023: real time      0.0023
    TRIAL :  cpu time      5.1621: real time      5.1917
    CORREC:  cpu time      0.0001: real time      0.0001
    CHARGE:  cpu time      0.1102: real time      0.1114
    --------------------------------------------
      LOOP:  cpu time      6.1299: real time      6.1641

 eigenvalue-minimisations  :     0
 total energy-change (2. order) :-0.4442027E-06  (-0.1178543E-05)
 number of electron      52.0000006 magnetization 
 augmentation part        1.7898898 magnetization 

 DIPCOR: dipole corrections for dipol
 direction  1 min pos     1, direction  2 min pos     1, direction  3 min pos     1,
 dipolmoment          -0.683540     -0.239328      0.507316 electrons x Angstroem
 Tr[quadrupol]        33.118838

 energy correction for charged system         0.000000 eV
 dipol+quadrupol energy correction           -0.002947 eV
 added-field ion interaction         -0.134685 eV  (added to PSCEN)


 Free energy of the ion-electron system (eV)
  ---------------------------------------------------
  alpha Z        PSCENC =         1.29324664
  Ewald energy   TEWEN  =      3924.80414089
  -Hartree energ DENC   =     -5464.00384873
  -exchange      EXHF   =       113.11967928
  -V(xc)+E(xc)   XCENC  =       144.85140669
  PAW double counting   =      3984.65873553    -3994.45198109
  entropy T*S    EENTRO =        -0.00000000
  eigenvalues    EBANDS =      -728.43033652
  atomic energy  EATOM  =      1873.55058303
  ---------------------------------------------------
  free energy    TOTEN  =      -144.60837427 eV

  energy without entropy =     -144.60837427  energy(sigma->0) =     -144.60837427
  exchange ACFDT corr.  =        -0.00000000  see jH, gK, PRB 81, 115126


--------------------------------------------------------------------------------------------------------




--------------------------------------- Iteration      1(  76)  ---------------------------------------


    POTLOK:  cpu time      0.8551: real time      0.8587
    SETDIJ:  cpu time      0.0021: real time      0.0021
    TRIAL :  cpu time      5.1686: real time      5.2011
    CORREC:  cpu time      0.0001: real time      0.0001
    EDDIAG:  cpu time      4.8396: real time      4.8667
    CHARGE:  cpu time      0.1112: real time      0.1117
    --------------------------------------------
      LOOP:  cpu time     10.9770: real time     11.0408

 eigenvalue-minimisations  :     0
 total energy-change (2. order) : 0.6728260E-06  (-0.8009766E-06)
 number of electron      52.0000006 magnetization 
 augmentation part        1.7898898 magnetization 

 DIPCOR: dipole corrections for dipol
 direction  1 min pos     1, direction  2 min pos     1, direction  3 min pos     1,
 dipolmoment          -0.683571     -0.239307      0.507322 electrons x Angstroem
 Tr[quadrupol]        33.118747

 energy correction for charged system         0.000000 eV
 dipol+quadrupol energy correction           -0.002948 eV
 added-field ion interaction         -0.134690 eV  (added to PSCEN)


 Free energy of the ion-electron system (eV)
  ---------------------------------------------------
  alpha Z        PSCENC =         1.29324125
  Ewald energy   TEWEN  =      3924.80414089
  -Hartree energ DENC   =     -5464.00373883
  -exchange      EXHF   =       113.11968674
  -V(xc)+E(xc)   XCENC  =       144.85127305
  PAW double counting   =      3984.65899046    -3994.45223512
  entropy T*S    EENTRO =        -0.00000000
  eigenvalues    EBANDS =      -728.43030671
  atomic energy  EATOM  =      1873.55058303
  ---------------------------------------------------
  free energy    TOTEN  =      -144.60837360 eV

  energy without entropy =     -144.60837360  energy(sigma->0) =     -144.60837360
  exchange ACFDT corr.  =        -0.00000000  see jH, gK, PRB 81, 115126


--------------------------------------------------------------------------------------------------------


  average scaling for gradient   0.4116


 average (electrostatic) potential at core
  the test charge radii are     0.6991  0.5201  0.7089  0.7215
  (the norm of the test charge is              1.0000)
       1 -55.1753       2 -55.3356       3 -56.4148       4 -55.2971       5 -55.5463
       6 -56.5000       7 -56.4355       8 -38.8362       9 -38.6249      10 -38.6465
      11 -38.9398      12 -38.9443      13 -38.6905      14 -41.1516      15 -38.8454
      16 -39.0220      17 -38.7621      18 -39.0864      19 -39.6635      20 -39.5448
      21 -68.8345      22 -75.3365
 
 
 
 E-fermi :  -7.4760     XC(G=0):  -0.2606     alpha+bet : -0.1554

 Fermi energy:        -7.4759803258

 k-point     1 :       0.0000    0.0000    0.0000
  band No.  band energies     occupation 
      1     -28.2952      2.00000
      2     -24.5267      2.00000
      3     -22.7169      2.00000
      4     -21.6265      2.00000
      5     -20.3713      2.00000
      6     -18.1608      2.00000
      7     -16.9888      2.00000
      8     -15.9810      2.00000
      9     -14.2954      2.00000
     10     -13.8883      2.00000
     11     -13.5426      2.00000
     12     -13.3474      2.00000
     13     -12.4883      2.00000
     14     -11.7490      2.00000
     15     -11.5628      2.00000
     16     -11.0381      2.00000
     17     -10.5687      2.00000
     18     -10.3432      2.00000
     19      -9.8888      2.00000
     20      -9.8032      2.00000
     21      -9.6919      2.00000
     22      -9.4890      2.00000
     23      -8.8495      2.00000
     24      -8.7778      2.00000
     25      -8.5134      2.00000
     26      -7.7106      2.00000
     27      -0.4859      0.00000
     28      -0.2249      0.00000
     29      -0.0317      0.00000
     30       0.0861      0.00000
     31       0.1791      0.00000
     32       0.3152      0.00000
     33       0.3991      0.00000
     34       0.4911      0.00000
     35       0.5148      0.00000
     36       0.5634      0.00000
     37       0.5775      0.00000
     38       0.6101      0.00000
     39       0.6393      0.00000
     40       0.7152      0.00000


--------------------------------------------------------------------------------------------------------


 soft charge-density along one line, spin component           1
         0         1         2         3         4         5         6         7         8         9
 total charge-density along one line
 
 pseudopotential strength for first ion, spin component:           1
  9.998  13.291   0.000   0.000  -0.000  -0.000  -0.000   0.002
 13.291  17.667   0.000   0.000  -0.001  -0.000  -0.000   0.002
  0.000   0.000  -4.278  -0.000  -0.001   8.390   0.001   0.001
  0.000   0.000  -0.000  -4.277   0.000   0.001   8.388  -0.000
 -0.000  -0.001  -0.001   0.000  -4.277   0.001  -0.000   8.387
 -0.000  -0.000   8.390   0.001   0.001 -18.577  -0.001  -0.002
 -0.000  -0.000   0.001   8.388  -0.000  -0.001 -18.573   0.001
  0.002   0.002   0.001  -0.000   8.387  -0.002   0.001 -18.571
 total augmentation occupancy for first ion, spin component:           1
  7.232  -3.060   0.039  -0.006  -0.034   0.011   0.000  -0.013
 -3.060   1.315  -0.028   0.002   0.020  -0.007  -0.000   0.009
  0.039  -0.028   1.592   0.003  -0.002   0.130   0.002  -0.002
 -0.006   0.002   0.003   1.575   0.002   0.002   0.124  -0.001
 -0.034   0.020  -0.002   0.002   1.573  -0.002  -0.001   0.127
  0.011  -0.007   0.130   0.002  -0.002   0.011   0.000  -0.000
  0.000  -0.000   0.002   0.124  -0.001   0.000   0.010  -0.000
 -0.013   0.009  -0.002  -0.001   0.127  -0.000  -0.000   0.011


------------------------ aborting loop because EDIFF is reached ----------------------------------------





 total charge

# of ion       s       p       d       tot
------------------------------------------
    1        0.833   1.769   0.000   2.602
    2        0.840   1.780   0.000   2.620
    3        0.829   1.735   0.000   2.564
    4        0.843   1.800   0.000   2.643
    5        0.837   1.787   0.000   2.624
    6        0.829   1.774   0.000   2.604
    7        0.932   1.761   0.000   2.693
    8        0.643   0.042   0.000   0.686
    9        0.636   0.041   0.000   0.677
   10        0.636   0.041   0.000   0.677
   11        0.652   0.044   0.000   0.696
   12        0.642   0.041   0.000   0.684
   13        0.657   0.042   0.000   0.699
   14        0.587   0.098   0.000   0.685
   15        0.651   0.044   0.000   0.695
   16        0.655   0.044   0.000   0.699
   17        0.640   0.042   0.000   0.682
   18        0.661   0.047   0.000   0.708
   19        0.632   0.043   0.000   0.675
   20        0.622   0.040   0.000   0.662
   21        1.326   2.459   0.000   3.785
   22        1.557   3.617   0.000   5.173
--------------------------------------------------
tot         17.141  19.091   0.000  36.231
 
    FORLOC:  cpu time      0.0548: real time      0.0550
    FORHF :  cpu time      2.7712: real time      2.7868
    FORNL :  cpu time      0.0947: real time      0.0952
    FORCOR:  cpu time      0.8187: real time      0.8217
    OFIELD:  cpu time      0.0020: real time      0.0020

 VOLUME and BASIS-vectors are now :
 -----------------------------------------------------------------------------
  energy-cutoff  :      500.00
  volume of cell :     8000.00
      direct lattice vectors                 reciprocal lattice vectors
    20.000000000  0.000000000  0.000000000     0.050000000  0.000000000  0.000000000
     0.000000000 20.000000000  0.000000000     0.000000000  0.050000000  0.000000000
     0.000000000  0.000000000 20.000000000     0.000000000  0.000000000  0.050000000

  length of vectors
    20.000000000 20.000000000 20.000000000     0.050000000  0.050000000  0.050000000


 FORCES acting on ions:
    Electron-Ion                     Ewald-Force                    Non-Local-Force
 -----------------------------------------------------------------------------------------------
   -.194E+03 0.507E+02 -.280E+02   0.194E+03 -.507E+02 0.279E+02   0.384E+00 0.273E+00 0.738E-01
   -.102E+03 -.863E+02 -.102E+03   0.101E+03 0.863E+02 0.102E+03   0.563E+00 0.112E+00 0.588E+00
   -.598E+02 -.569E+02 0.129E+03   0.619E+02 0.639E+02 -.130E+03   -.653E+00 -.549E+01 0.541E+00
   0.498E+02 -.103E+03 0.131E+03   -.495E+02 0.102E+03 -.131E+03   -.578E+00 0.832E+00 -.659E-01
   0.385E+02 0.178E+02 -.726E+02   -.371E+02 -.193E+02 0.727E+02   -.159E+01 0.366E+00 -.908E-01
   0.112E+03 -.106E+03 0.477E+02   -.109E+03 0.107E+03 -.521E+02   -.290E+01 -.890E+00 0.389E+01
   0.578E+02 -.396E+02 0.736E+01   -.576E+02 0.402E+02 -.869E+01   -.180E+01 -.280E+00 0.306E+01
   -.297E+02 0.714E+02 -.175E+02   0.295E+02 -.762E+02 0.183E+02   0.553E+00 0.526E+01 -.737E+00
   -.594E+02 -.229E+01 0.543E+02   0.614E+02 0.277E+01 -.585E+02   -.214E+01 -.694E+00 0.473E+01
   -.641E+02 -.191E+02 -.451E+02   0.673E+02 0.206E+02 0.482E+02   -.324E+01 -.224E+01 -.346E+01
   -.364E+02 -.800E+02 -.841E+01   0.374E+02 0.852E+02 0.846E+01   -.123E+01 -.531E+01 0.358E+00
   0.172E+01 0.811E+01 -.814E+02   -.367E+01 -.884E+01 0.856E+02   0.217E+01 0.127E+01 -.458E+01
   -.434E+02 -.190E+02 0.848E+02   0.459E+02 0.199E+02 -.893E+02   -.286E+01 -.102E+01 0.452E+01
   -.215E+02 0.824E+02 -.726E+02   0.230E+02 -.848E+02 0.770E+02   -.214E+01 0.313E+01 -.605E+01
   0.453E+02 0.272E+01 0.794E+02   -.483E+02 -.390E+01 -.837E+02   0.299E+01 0.126E+01 0.439E+01
   -.137E+02 -.847E+02 0.281E+02   0.152E+02 0.900E+02 -.287E+02   -.138E+01 -.527E+01 0.497E+00
   0.370E+02 0.718E+02 -.142E+02   -.383E+02 -.764E+02 0.145E+02   0.169E+01 0.506E+01 -.211E+00
   -.268E+02 -.149E+02 -.735E+02   0.299E+02 0.159E+02 0.782E+02   -.310E+01 -.860E+00 -.469E+01
   0.493E+01 -.827E+02 0.116E+02   -.401E+01 0.875E+02 -.122E+02   -.121E+01 -.524E+01 0.752E+00
   0.604E+02 0.658E+01 0.568E+02   -.631E+02 -.769E+01 -.601E+02   0.280E+01 0.173E+01 0.406E+01
   0.170E+03 0.195E+02 -.250E+03   -.189E+03 -.254E+02 0.284E+03   0.181E+02 0.572E+01 -.337E+02
   0.480E+02 0.342E+03 0.131E+03   -.676E+02 -.368E+03 -.163E+03   0.173E+02 0.213E+02 0.301E+02
 -----------------------------------------------------------------------------------------------
   -.248E+02 -.218E+02 -.536E+01   -.156E-12 0.568E-13 -.284E-13   0.218E+02 0.190E+02 0.398E+01
 
 
 POSITION                                       TOTAL-FORCE (eV/Angst)
 -----------------------------------------------------------------------------------
     12.94581      9.17377     10.06175         1.093133      0.303942     -0.035711
     11.64534      9.93786     10.16801         0.091580      0.176149      0.151159
     10.71195      9.59356      9.01805         1.394716      1.192018      0.196231
      9.46925     10.44224      9.05438        -0.225872      0.233112     -0.523097
      8.68821     10.25731     10.33069        -0.340984     -1.100757     -0.075148
      7.44489     11.12478     10.33056        -0.514298     -0.237025     -0.366069
      6.75963     10.87611     11.60134        -1.759432      0.253280      2.016424
     12.81258      8.08480     10.22805         0.359991      0.655395      0.033811
     13.39351      9.32582      9.04858        -0.225803     -0.234274      0.737899
     13.63889      9.63609     10.80710        -0.236348     -0.863818     -0.495246
     11.88229     11.01362     10.10351        -0.275827     -0.288286      0.420753
     11.16647      9.66702     11.14264         0.298683      0.582395     -0.642812
     11.28966      9.80759      8.09077        -0.439913     -0.132029      0.229410
     10.76006      7.83572      9.93254        -0.736327      0.822611     -1.852011
      8.85002     10.19216      8.17594         0.047275      0.125545      0.302233
      9.75329     11.50117      8.96116         0.036944     -0.198278     -0.133278
      8.32543      9.20093     10.38072         0.454409      0.673596      0.107657
      9.28828     10.43824     11.22526        -0.101103      0.092948     -0.177662
      7.68934     12.20085     10.18874        -0.337280     -0.628244      0.196670
      6.82562     10.75990      9.46212         0.229855      0.686335      0.916980
      6.21567     10.69508     12.62761         1.331650      0.319031     -2.341893
     10.44382      8.23536      9.06050        -0.145050     -2.433644      1.333700
 -----------------------------------------------------------------------------------
    total drift:                                0.000757     -0.000733     -0.001366


--------------------------------------------------------------------------------------------------------



  FREE ENERGIE OF THE ION-ELECTRON SYSTEM (eV)
  ---------------------------------------------------
  free  energy   TOTEN  =      -144.60837360 eV

  energy  without entropy=     -144.60837360  energy(sigma->0) =     -144.60837360
 


--------------------------------------------------------------------------------------------------------


    POTLOK:  cpu time      0.8606: real time      0.8640


--------------------------------------------------------------------------------------------------------


 writing wavefunctions
     LOOP+:  cpu time    472.3094: real time    479.1819
    4ORBIT:  cpu time      0.0000: real time      0.0000



 total charge

# of ion       s       p       d       tot
------------------------------------------
    1        0.833   1.769   0.000   2.602
    2        0.840   1.780   0.000   2.620
    3        0.829   1.735   0.000   2.564
    4        0.843   1.800   0.000   2.643
    5        0.837   1.787   0.000   2.624
    6        0.829   1.774   0.000   2.604
    7        0.932   1.761   0.000   2.693
    8        0.643   0.042   0.000   0.686
    9        0.636   0.041   0.000   0.677
   10        0.636   0.041   0.000   0.677
   11        0.652   0.044   0.000   0.696
   12        0.642   0.041   0.000   0.684
   13        0.657   0.042   0.000   0.699
   14        0.587   0.098   0.000   0.685
   15        0.651   0.044   0.000   0.695
   16        0.655   0.044   0.000   0.699
   17        0.640   0.042   0.000   0.682
   18        0.661   0.047   0.000   0.708
   19        0.632   0.043   0.000   0.675
   20        0.622   0.040   0.000   0.662
   21        1.326   2.459   0.000   3.785
   22        1.557   3.617   0.000   5.173
--------------------------------------------------
tot         17.141  19.091   0.000  36.231
 

 total amount of memory used by VASP MPI-rank0   763972. kBytes
=======================================================================

   base      :      30000. kBytes
   nonl-proj :      30905. kBytes
   fftplans  :      75720. kBytes
   grid      :      99427. kBytes
   one-center:         18. kBytes
   HF        :         13. kBytes
   nonlr-proj:        989. kBytes
   wavefun   :      12207. kBytes
   fock_wrk  :     514693. kBytes
 
  
  
 General timing and accounting informations for this job:
 ========================================================
  
                  Total CPU time used (sec):      489.776
                            User time (sec):      431.467
                          System time (sec):       58.308
                         Elapsed time (sec):      501.883
  
                   Maximum memory used (kb):     1246368.
                   Average memory used (kb):          N/A
  
                          Minor page faults:      1976561
                          Major page faults:           65
                 Voluntary context switches:        19619
