Molecule_POSCAR_07                      
   1.00000000000000     
    30.0000000000000000    0.0000000000000000    0.0000000000000000
     0.0000000000000000   30.0000000000000000    0.0000000000000000
     0.0000000000000000    0.0000000000000000   30.0000000000000000
   C    H    O 
    44    26     2
Direct
  0.6404882000000001  0.5120207333333298  0.3765922333333336
  0.5911942666666690  0.5078129666666698  0.3858412666666666
  0.5759260000000026  0.5110754999999969  0.4282884666666646
  0.6092082999999988  0.5186071333333331  0.4625451333333359
  0.6469450666666674  0.4881843666666654  0.4543328666666682
  0.6621776666666648  0.4848609000000010  0.4131871333333308
  0.6574935000000011  0.4679383000000001  0.4968067333333366
  0.6878889999999984  0.4383511666666635  0.5100651666666636
  0.6921767333333335  0.4225574000000023  0.5558582333333320
  0.6603697666666690  0.4408673333333368  0.5876952666666639
  0.6299591000000007  0.4701651000000027  0.5751084666666699
  0.6262846333333343  0.4857113666666635  0.5294625333333300
  0.5979817666666634  0.5152428000000029  0.5091833333333327
  0.5634112333333334  0.5384919333333329  0.5355125333333319
  0.5072107333333307  0.4874220333333312  0.5485739000000009
  0.4874926666666681  0.4473577999999989  0.5673795666666663
  0.4435098000000011  0.4416604333333325  0.5781409666666661
  0.4267399000000012  0.4022888000000009  0.5952508333333313
  0.4547141666666690  0.3660388333333344  0.6023672333333323
  0.4990371999999965  0.3716405666666702  0.5915933666666646
  0.5155754333333320  0.4109764333333317  0.5745354000000020
  0.4938012000000001  0.5110421333333335  0.5140112666666639
  0.4613783666666649  0.5165094666666690  0.4782797333333306
  0.4179281666666697  0.4974962000000005  0.4834535999999972
  0.4059914333333339  0.4548534333333336  0.4746894000000026
  0.4303491000000008  0.4156300000000002  0.4582450666666631
  0.4077631666666690  0.3784409666666662  0.4529575999999977
  0.3599837000000008  0.3739409333333299  0.4625316666666635
  0.3373782999999975  0.4095263333333321  0.4776924000000022
  0.3588528333333301  0.4497617999999974  0.4842502333333343
  0.3413819000000018  0.4910283333333325  0.4991405666666680
  0.2996250666666640  0.5059881999999973  0.5124469333333366
  0.2916722333333368  0.5491913666666690  0.5256461999999971
  0.3269649666666652  0.5786471999999989  0.5255338666666631
  0.3686925666666667  0.5639967999999982  0.5123218666666673
  0.3774614000000014  0.5210694333333308  0.4990083333333359
  0.5038436333333323  0.5802022000000022  0.4829690999999983
  0.5188138666666688  0.6249218666666678  0.4714292333333319
  0.5623985000000005  0.6362022333333357  0.4644395999999986
  0.5751155333333315  0.6796194666666651  0.4532336666666694
  0.5441429333333332  0.7126880666666651  0.4488218333333336
  0.4995611666666662  0.7022633333333346  0.4557209666666679
  0.4875959666666674  0.6595360000000028  0.4666835666666671
  0.5243224333333316  0.5502109333333323  0.5081629000000021
  0.6491708000000003  0.4940023666666633  0.3453927666666701
  0.5692456333333311  0.5022761000000031  0.3583685333333335
  0.5405701999999977  0.5075159333333303  0.4311443666666648
  0.6892787000000027  0.4630817666666687  0.4070908333333350
  0.7098176333333299  0.4261289666666670  0.4849878666666640
  0.7012209333333317  0.3876817333333307  0.5601485666666690
  0.6614864000000011  0.4304466999999974  0.6223592333333343
  0.6078527666666673  0.4824023333333329  0.6001113333333308
  0.4205457666666632  0.4689095000000023  0.5735871333333336
  0.3910517666666635  0.3993117999999996  0.6033550333333366
  0.4410468000000023  0.3354166666666671  0.6157946000000010
  0.5210466333333343  0.3436418333333364  0.5969551333333314
  0.5504081999999997  0.4151396000000034  0.5661634000000006
  0.4653593666666680  0.4192820333333316  0.4514573000000013
  0.4273093666666696  0.3498524000000032  0.4405739333333329
  0.3440725999999970  0.3425902666666687  0.4572418666666636
  0.3020287000000010  0.4041371666666649  0.4841140999999993
  0.2722449333333330  0.4821081999999990  0.5122749333333303
  0.2591636333333298  0.5613606000000004  0.5361513000000002
  0.3228306999999973  0.6130324333333306  0.5355476333333300
  0.3969382000000010  0.5874302333333361  0.5122187666666633
  0.5874145666666664  0.6101786666666698  0.4679503666666633
  0.6096690666666689  0.6868987333333365  0.4480808333333357
  0.5534535333333324  0.7468054666666646  0.4400560999999996
  0.4746694333333323  0.7288646333333304  0.4521559000000011
  0.4525440333333322  0.6504653000000005  0.4723044999999999
  0.5452407333333298  0.5073610666666681  0.5659363999999982
  0.4635153666666696  0.5616388666666694  0.4684870999999973
 
  0.00000000E+00  0.00000000E+00  0.00000000E+00
  0.00000000E+00  0.00000000E+00  0.00000000E+00
  0.00000000E+00  0.00000000E+00  0.00000000E+00
  0.00000000E+00  0.00000000E+00  0.00000000E+00
  0.00000000E+00  0.00000000E+00  0.00000000E+00
  0.00000000E+00  0.00000000E+00  0.00000000E+00
  0.00000000E+00  0.00000000E+00  0.00000000E+00
  0.00000000E+00  0.00000000E+00  0.00000000E+00
  0.00000000E+00  0.00000000E+00  0.00000000E+00
  0.00000000E+00  0.00000000E+00  0.00000000E+00
  0.00000000E+00  0.00000000E+00  0.00000000E+00
  0.00000000E+00  0.00000000E+00  0.00000000E+00
  0.00000000E+00  0.00000000E+00  0.00000000E+00
  0.00000000E+00  0.00000000E+00  0.00000000E+00
  0.00000000E+00  0.00000000E+00  0.00000000E+00
  0.00000000E+00  0.00000000E+00  0.00000000E+00
  0.00000000E+00  0.00000000E+00  0.00000000E+00
  0.00000000E+00  0.00000000E+00  0.00000000E+00
  0.00000000E+00  0.00000000E+00  0.00000000E+00
  0.00000000E+00  0.00000000E+00  0.00000000E+00
  0.00000000E+00  0.00000000E+00  0.00000000E+00
  0.00000000E+00  0.00000000E+00  0.00000000E+00
  0.00000000E+00  0.00000000E+00  0.00000000E+00
  0.00000000E+00  0.00000000E+00  0.00000000E+00
  0.00000000E+00  0.00000000E+00  0.00000000E+00
  0.00000000E+00  0.00000000E+00  0.00000000E+00
  0.00000000E+00  0.00000000E+00  0.00000000E+00
  0.00000000E+00  0.00000000E+00  0.00000000E+00
  0.00000000E+00  0.00000000E+00  0.00000000E+00
  0.00000000E+00  0.00000000E+00  0.00000000E+00
  0.00000000E+00  0.00000000E+00  0.00000000E+00
  0.00000000E+00  0.00000000E+00  0.00000000E+00
  0.00000000E+00  0.00000000E+00  0.00000000E+00
  0.00000000E+00  0.00000000E+00  0.00000000E+00
  0.00000000E+00  0.00000000E+00  0.00000000E+00
  0.00000000E+00  0.00000000E+00  0.00000000E+00
  0.00000000E+00  0.00000000E+00  0.00000000E+00
  0.00000000E+00  0.00000000E+00  0.00000000E+00
  0.00000000E+00  0.00000000E+00  0.00000000E+00
  0.00000000E+00  0.00000000E+00  0.00000000E+00
  0.00000000E+00  0.00000000E+00  0.00000000E+00
  0.00000000E+00  0.00000000E+00  0.00000000E+00
  0.00000000E+00  0.00000000E+00  0.00000000E+00
  0.00000000E+00  0.00000000E+00  0.00000000E+00
  0.00000000E+00  0.00000000E+00  0.00000000E+00
  0.00000000E+00  0.00000000E+00  0.00000000E+00
  0.00000000E+00  0.00000000E+00  0.00000000E+00
  0.00000000E+00  0.00000000E+00  0.00000000E+00
  0.00000000E+00  0.00000000E+00  0.00000000E+00
  0.00000000E+00  0.00000000E+00  0.00000000E+00
  0.00000000E+00  0.00000000E+00  0.00000000E+00
  0.00000000E+00  0.00000000E+00  0.00000000E+00
  0.00000000E+00  0.00000000E+00  0.00000000E+00
  0.00000000E+00  0.00000000E+00  0.00000000E+00
  0.00000000E+00  0.00000000E+00  0.00000000E+00
  0.00000000E+00  0.00000000E+00  0.00000000E+00
  0.00000000E+00  0.00000000E+00  0.00000000E+00
  0.00000000E+00  0.00000000E+00  0.00000000E+00
  0.00000000E+00  0.00000000E+00  0.00000000E+00
  0.00000000E+00  0.00000000E+00  0.00000000E+00
  0.00000000E+00  0.00000000E+00  0.00000000E+00
  0.00000000E+00  0.00000000E+00  0.00000000E+00
  0.00000000E+00  0.00000000E+00  0.00000000E+00
  0.00000000E+00  0.00000000E+00  0.00000000E+00
  0.00000000E+00  0.00000000E+00  0.00000000E+00
  0.00000000E+00  0.00000000E+00  0.00000000E+00
  0.00000000E+00  0.00000000E+00  0.00000000E+00
  0.00000000E+00  0.00000000E+00  0.00000000E+00
  0.00000000E+00  0.00000000E+00  0.00000000E+00
  0.00000000E+00  0.00000000E+00  0.00000000E+00
  0.00000000E+00  0.00000000E+00  0.00000000E+00
  0.00000000E+00  0.00000000E+00  0.00000000E+00
