       N       E                     dE             d eps       ncg     rms          ort
SDA:   1    -0.600169515620E+03   -0.60017E+03    0.00000E+00   144   0.138E+01 0.000E+00
CGA:   2    -0.600718319541E+03   -0.54880E+00   -0.53087E+00   144   0.315E+00 0.817E-01
CGA:   3    -0.600813533267E+03   -0.95214E-01   -0.94981E-01   144   0.135E+00 0.217E-02
CGA:   4    -0.600845261214E+03   -0.31728E-01   -0.31693E-01   144   0.484E-01 0.967E-03
CGA:   5    -0.600858196426E+03   -0.12935E-01   -0.12898E-01   144   0.231E-01 0.495E-03
CGA:   6    -0.600864927453E+03   -0.67310E-02   -0.67171E-02   144   0.111E-01 0.154E-03
CGA:   7    -0.600868395441E+03   -0.34680E-02   -0.34606E-02   144   0.515E-02 0.676E-04
CGA:   8    -0.600869987592E+03   -0.15922E-02   -0.15897E-02   144   0.217E-02 0.274E-04
CGA:   9    -0.600870587026E+03   -0.59943E-03   -0.59892E-03   144   0.876E-03 0.152E-04
CGA:  10    -0.600870832933E+03   -0.24591E-03   -0.24583E-03   144   0.380E-03 0.579E-05
CGA:  11    -0.600870954407E+03   -0.12147E-03   -0.12180E-03   144   0.212E-03-0.120E-05
CGA:  12    -0.600871018470E+03   -0.64063E-04   -0.64382E-04   144   0.117E-03-0.159E-05
CGA:  13    -0.600871052303E+03   -0.33833E-04   -0.34127E-04   144   0.477E-04-0.184E-05
CGA:  14    -0.600871066610E+03   -0.14307E-04   -0.14650E-04   144   0.195E-04-0.203E-05
CGA:  15    -0.600871071681E+03   -0.50710E-05   -0.52966E-05   144   0.863E-05-0.116E-05
CGA:  16    -0.600871073754E+03   -0.20734E-05   -0.22791E-05   144   0.386E-05-0.800E-06
CGA:  17    -0.600871074648E+03   -0.89331E-06   -0.11832E-05   144   0.224E-05-0.858E-06
   1 F= -.60257047E+03 E0= -.60257047E+03  d E =-.564193E-12
