       N       E                     dE             d eps       ncg     rms          ort
SDA:   1    -0.531668642115E+03   -0.53167E+03    0.00000E+00   136   0.121E+01 0.000E+00
CGA:   2    -0.532161211796E+03   -0.49257E+00   -0.48788E+00   136   0.445E+00 0.238E-01
CGA:   3    -0.532259735788E+03   -0.98524E-01   -0.98516E-01   136   0.142E+00 0.840E-03
CGA:   4    -0.532297552688E+03   -0.37817E-01   -0.37756E-01   136   0.499E-01 0.721E-03
CGA:   5    -0.532311711327E+03   -0.14159E-01   -0.14137E-01   136   0.257E-01 0.217E-03
CGA:   6    -0.532318912913E+03   -0.72016E-02   -0.71940E-02   136   0.107E-01 0.919E-04
CGA:   7    -0.532322040891E+03   -0.31280E-02   -0.31253E-02   136   0.417E-02 0.342E-04
CGA:   8    -0.532323248567E+03   -0.12077E-02   -0.12071E-02   136   0.162E-02 0.100E-04
CGA:   9    -0.532323671432E+03   -0.42287E-03   -0.42264E-03   136   0.573E-03 0.106E-04
CGA:  10    -0.532323824731E+03   -0.15330E-03   -0.15320E-03   136   0.192E-03 0.642E-05
CGA:  11    -0.532323884649E+03   -0.59919E-04   -0.60078E-04   136   0.870E-04 0.762E-07
CGA:  12    -0.532323910734E+03   -0.26085E-04   -0.26227E-04   136   0.413E-04 0.261E-06
CGA:  13    -0.532323922337E+03   -0.11603E-04   -0.11774E-04   136   0.192E-04-0.514E-06
CGA:  14    -0.532323927607E+03   -0.52703E-05   -0.54909E-05   136   0.105E-04-0.146E-05
CGA:  15    -0.532323929892E+03   -0.22851E-05   -0.24202E-05   136   0.556E-05-0.891E-06
CGA:  16    -0.532323930914E+03   -0.10219E-05   -0.11243E-05   136   0.258E-05-0.468E-06
CGA:  17    -0.532323931435E+03   -0.52066E-06   -0.72242E-06   136   0.196E-05-0.701E-06
   1 F= -.53352141E+03 E0= -.53352141E+03  d E =-.504501E-14
