 vasp.5.4.1 24Jun15 (build Feb 10 2025 21:25:14) gamma-only                     
  
 executed on           IFC91_ompi date 2026.02.18  15:55:37
 running on    4 total cores
 distrk:  each k-point on    4 cores,    1 groups
 distr:  one band on NCORES_PER_BAND=   1 cores,    4 groups


--------------------------------------------------------------------------------------------------------


 INCAR:
 POTCAR:    PAW_PBE C 08Apr2002                   
 POTCAR:    PAW_PBE H 15Jun2001                   
 POTCAR:    PAW_PBE N 08Apr2002                   
 POTCAR:    PAW_PBE O 08Apr2002                   
 POTCAR:    PAW_PBE S 06Sep2000                   
 POTCAR:    PAW_PBE C 08Apr2002                   
   VRHFIN =C: s2p2                                                              
   LEXCH  = PE                                                                  
   EATOM  =   147.1560 eV,   10.8157 Ry                                         
                                                                                
   TITEL  = PAW_PBE C 08Apr2002                                                 
   LULTRA =        F    use ultrasoft PP ?                                      
   IUNSCR =        1    unscreen: 0-lin 1-nonlin 2-no                           
   RPACOR =    1.200    partial core radius                                     
   POMASS =   12.011; ZVAL   =    4.000    mass and valenz                      
   RCORE  =    1.500    outmost cutoff radius                                   
   RWIGS  =    1.630; RWIGS  =    0.863    wigner-seitz radius (au A)           
   ENMAX  =  400.000; ENMIN  =  300.000 eV                                      
   ICORE  =        2    local potential                                         
   LCOR   =        T    correct aug charges                                     
   LPAW   =        T    paw PP                                                  
   EAUG   =  644.873                                                            
   DEXC   =    0.000                                                            
   RMAX   =    1.529    core radius for proj-oper                               
   RAUG   =    1.300    factor for augmentation sphere                          
   RDEP   =    1.501    radius for radial grids                                 
   RDEPT  =    1.300    core radius for aug-charge                              
                                                                                
   Atomic configuration                                                         
    4 entries                                                                   
     n  l   j            E        occ.                                          
     1  0  0.50      -273.3789   2.0000                                         
     2  0  0.50       -13.7508   2.0000                                         
     2  1  0.50        -5.2854   2.0000                                         
     3  2  1.50        -5.4423   0.0000                                         
   Description                                                                  
     l       E           TYP  RCUT    TYP  RCUT                                 
     0    -13.7508458     23  1.200                                             
     0     -8.2022199     23  1.200                                             
     1     -5.2854383     23  1.500                                             
     1     34.0145650     23  1.500                                             
     2     -5.4423304      7  1.500                                             
  local pseudopotential read in
  partial core-charges read in
  partial kinetic energy density read in
  atomic valenz-charges read in
  non local Contribution for L=           0  read in
    real space projection operators read in
  non local Contribution for L=           0  read in
    real space projection operators read in
  non local Contribution for L=           1  read in
    real space projection operators read in
  non local Contribution for L=           1  read in
    real space projection operators read in
    PAW grid and wavefunctions read in
 
   number of l-projection  operators is LMAX  =           4
   number of lm-projection operators is LMMAX =           8
 
 POTCAR:    PAW_PBE H 15Jun2001                   
   VRHFIN =H: ultrasoft test                                                    
   LEXCH  = PE                                                                  
   EATOM  =    12.4884 eV,    0.9179 Ry                                         
                                                                                
   TITEL  = PAW_PBE H 15Jun2001                                                 
   LULTRA =        F    use ultrasoft PP ?                                      
   IUNSCR =        0    unscreen: 0-lin 1-nonlin 2-no                           
   RPACOR =    0.000    partial core radius                                     
   POMASS =    1.000; ZVAL   =    1.000    mass and valenz                      
   RCORE  =    1.100    outmost cutoff radius                                   
   RWIGS  =    0.700; RWIGS  =    0.370    wigner-seitz radius (au A)           
   ENMAX  =  250.000; ENMIN  =  200.000 eV                                      
   RCLOC  =    0.701    cutoff for local pot                                    
   LCOR   =        T    correct aug charges                                     
   LPAW   =        T    paw PP                                                  
   EAUG   =  400.000                                                            
   RMAX   =    1.123    core radius for proj-oper                               
   RAUG   =    1.200    factor for augmentation sphere                          
   RDEP   =    1.112    radius for radial grids                                 
   RDEPT  =    0.926    core radius for aug-charge                              
                                                                                
   Atomic configuration                                                         
    2 entries                                                                   
     n  l   j            E        occ.                                          
     1  0  0.50        -6.4927   1.0000                                         
     2  1  0.50        -3.4015   0.0000                                         
   Description                                                                  
     l       E           TYP  RCUT    TYP  RCUT                                 
     0     -6.4927494     23  1.100                                             
     0      6.8029130     23  1.100                                             
     1     -4.0817478     23  1.100                                             
  local pseudopotential read in
  atomic valenz-charges read in
  non local Contribution for L=           0  read in
    real space projection operators read in
  non local Contribution for L=           0  read in
    real space projection operators read in
  non local Contribution for L=           1  read in
    real space projection operators read in
    PAW grid and wavefunctions read in
 
   number of l-projection  operators is LMAX  =           3
   number of lm-projection operators is LMMAX =           5
 
 POTCAR:    PAW_PBE N 08Apr2002                   
   VRHFIN =N: s2p3                                                              
   LEXCH  = PE                                                                  
   EATOM  =   264.5486 eV,   19.4438 Ry                                         
                                                                                
   TITEL  = PAW_PBE N 08Apr2002                                                 
   LULTRA =        F    use ultrasoft PP ?                                      
   IUNSCR =        1    unscreen: 0-lin 1-nonlin 2-no                           
   RPACOR =    1.200    partial core radius                                     
   POMASS =   14.001; ZVAL   =    5.000    mass and valenz                      
   RCORE  =    1.500    outmost cutoff radius                                   
   RWIGS  =    1.400; RWIGS  =    0.741    wigner-seitz radius (au A)           
   ENMAX  =  400.000; ENMIN  =  300.000 eV                                      
   ICORE  =        2    local potential                                         
   LCOR   =        T    correct aug charges                                     
   LPAW   =        T    paw PP                                                  
   EAUG   =  627.112                                                            
   DEXC   =    0.000                                                            
   RMAX   =    1.529    core radius for proj-oper                               
   RAUG   =    1.300    factor for augmentation sphere                          
   RDEP   =    1.514    radius for radial grids                                 
   RDEPT  =    1.338    core radius for aug-charge                              
                                                                                
   Atomic configuration                                                         
    4 entries                                                                   
     n  l   j            E        occ.                                          
     1  0  0.50      -384.7179   2.0000                                         
     2  0  0.50       -18.5828   2.0000                                         
     2  1  0.50        -7.0898   3.0000                                         
     3  2  1.50        -6.8029   0.0000                                         
   Description                                                                  
     l       E           TYP  RCUT    TYP  RCUT                                 
     0    -18.5828119     23  1.200                                             
     0    -13.5018863     23  1.200                                             
     1     -7.0897853     23  1.500                                             
     1      9.5240782     23  1.500                                             
     2     -6.8029130      7  1.500                                             
  local pseudopotential read in
  partial core-charges read in
  partial kinetic energy density read in
  atomic valenz-charges read in
  non local Contribution for L=           0  read in
    real space projection operators read in
  non local Contribution for L=           0  read in
    real space projection operators read in
  non local Contribution for L=           1  read in
    real space projection operators read in
  non local Contribution for L=           1  read in
    real space projection operators read in
    PAW grid and wavefunctions read in
 
   number of l-projection  operators is LMAX  =           4
   number of lm-projection operators is LMMAX =           8
 
 POTCAR:    PAW_PBE O 08Apr2002                   
   VRHFIN =O: s2p4                                                              
   LEXCH  = PE                                                                  
   EATOM  =   432.3788 eV,   31.7789 Ry                                         
                                                                                
   TITEL  = PAW_PBE O 08Apr2002                                                 
   LULTRA =        F    use ultrasoft PP ?                                      
   IUNSCR =        1    unscreen: 0-lin 1-nonlin 2-no                           
   RPACOR =    1.200    partial core radius                                     
   POMASS =   16.000; ZVAL   =    6.000    mass and valenz                      
   RCORE  =    1.520    outmost cutoff radius                                   
   RWIGS  =    1.550; RWIGS  =    0.820    wigner-seitz radius (au A)           
   ENMAX  =  400.000; ENMIN  =  300.000 eV                                      
   ICORE  =        2    local potential                                         
   LCOR   =        T    correct aug charges                                     
   LPAW   =        T    paw PP                                                  
   EAUG   =  605.392                                                            
   DEXC   =    0.000                                                            
   RMAX   =    1.553    core radius for proj-oper                               
   RAUG   =    1.300    factor for augmentation sphere                          
   RDEP   =    1.550    radius for radial grids                                 
   RDEPT  =    1.329    core radius for aug-charge                              
                                                                                
   Atomic configuration                                                         
    4 entries                                                                   
     n  l   j            E        occ.                                          
     1  0  0.50      -514.6923   2.0000                                         
     2  0  0.50       -23.9615   2.0000                                         
     2  1  0.50        -9.0305   4.0000                                         
     3  2  1.50        -9.5241   0.0000                                         
   Description                                                                  
     l       E           TYP  RCUT    TYP  RCUT                                 
     0    -23.9615318     23  1.200                                             
     0     -9.5240782     23  1.200                                             
     1     -9.0304911     23  1.520                                             
     1      8.1634956     23  1.520                                             
     2     -9.5240782      7  1.500                                             
  local pseudopotential read in
  partial core-charges read in
  partial kinetic energy density read in
  kinetic energy density of atom read in
  atomic valenz-charges read in
  non local Contribution for L=           0  read in
    real space projection operators read in
  non local Contribution for L=           0  read in
    real space projection operators read in
  non local Contribution for L=           1  read in
    real space projection operators read in
  non local Contribution for L=           1  read in
    real space projection operators read in
    PAW grid and wavefunctions read in
 
   number of l-projection  operators is LMAX  =           4
   number of lm-projection operators is LMMAX =           8
 
 POTCAR:    PAW_PBE S 06Sep2000                   
   VRHFIN =S : s2p4                                                             
   LEXCH  = PE                                                                  
   EATOM  =   276.8230 eV,   20.3459 Ry                                         
                                                                                
   TITEL  = PAW_PBE S 06Sep2000                                                 
   LULTRA =        F    use ultrasoft PP ?                                      
   IUNSCR =        1    unscreen: 0-lin 1-nonlin 2-no                           
   RPACOR =    1.500    partial core radius                                     
   POMASS =   32.066; ZVAL   =    6.000    mass and valenz                      
   RCORE  =    1.900    outmost cutoff radius                                   
   RWIGS  =    2.200; RWIGS  =    1.164    wigner-seitz radius (au A)           
   ENMAX  =  258.689; ENMIN  =  194.016 eV                                      
   ICORE  =        2    local potential                                         
   LCOR   =        T    correct aug charges                                     
   LPAW   =        T    paw PP                                                  
   EAUG   =  335.092                                                            
   DEXC   =    0.000                                                            
   RMAX   =    1.942    core radius for proj-oper                               
   RAUG   =    1.300    factor for augmentation sphere                          
   RDEP   =    1.954    radius for radial grids                                 
   RDEPT  =    1.744    core radius for aug-charge                              
                                                                                
   Atomic configuration                                                         
    6 entries                                                                   
     n  l   j            E        occ.                                          
     1  0  0.50     -2405.8406   2.0000                                         
     2  0  0.50      -211.7007   2.0000                                         
     2  1  1.50      -156.4958   6.0000                                         
     3  0  0.50       -17.2562   2.0000                                         
     3  1  0.50        -7.0085   4.0000                                         
     3  2  1.50        -6.8029   0.0000                                         
   Description                                                                  
     l       E           TYP  RCUT    TYP  RCUT                                 
     0    -17.2561641     23  1.900                                             
     0    -15.8743224     23  1.900                                             
     1     -7.0085400     23  1.900                                             
     1     -2.7779785     23  1.900                                             
     2     -6.8029130     23  1.900                                             
  local pseudopotential read in
  partial core-charges read in
  partial kinetic energy density read in
  atomic valenz-charges read in
  non local Contribution for L=           0  read in
    real space projection operators read in
  non local Contribution for L=           0  read in
    real space projection operators read in
  non local Contribution for L=           1  read in
    real space projection operators read in
  non local Contribution for L=           1  read in
    real space projection operators read in
    PAW grid and wavefunctions read in
 
   number of l-projection  operators is LMAX  =           4
   number of lm-projection operators is LMMAX =           8
 

 ----------------------------------------------------------------------------- 
|                                                                             |
|  ADVICE TO THIS USER RUNNING 'VASP/VAMP'   (HEAR YOUR MASTER'S VOICE ...):  |
|                                                                             |
|      You have a (more or less) 'large supercell' and for larger cells       |
|      it might be more efficient to use real space projection opertators     |
|      So try LREAL= Auto  in the INCAR   file.                               |
|      Mind: At the moment your POTCAR file does not contain real space       |
|       projectors, and has to be modified,  BUT if you                       |
|      want to do an extremely  accurate calculation you might also keep the  |
|      reciprocal projection scheme          (i.e. LREAL=.FALSE.)             |
|                                                                             |
 ----------------------------------------------------------------------------- 

  PAW_PBE C 08Apr2002                   :
 energy of atom  1       EATOM= -147.1560
 kinetic energy error for atom=    0.0076 (will be added to EATOM!!)
  PAW_PBE H 15Jun2001                   :
 energy of atom  2       EATOM=  -12.4884
 kinetic energy error for atom=    0.0020 (will be added to EATOM!!)
  PAW_PBE N 08Apr2002                   :
 energy of atom  3       EATOM= -264.5486
 kinetic energy error for atom=    0.0138 (will be added to EATOM!!)
  PAW_PBE O 08Apr2002                   :
 energy of atom  4       EATOM= -432.3788
 kinetic energy error for atom=    0.0224 (will be added to EATOM!!)
  PAW_PBE S 06Sep2000                   :
 energy of atom  5       EATOM= -276.8230
 kinetic energy error for atom=    0.0020 (will be added to EATOM!!)
 
 
 POSCAR: Molecule_POSCAR_08                      
  positions in cartesian coordinates
  No initial velocities read in
 exchange correlation table for  LEXCH =        8
   RHO(1)=    0.500       N(1)  =     2000
   RHO(2)=  100.500       N(2)  =     4000

 VTST: version 3.2, (02/03/18)

 CHAIN: initializing optimizer
 
 OPT: Using VASP Dynamics algorithm
 CHAIN: Read ICHAIN            0
 
 POSCAR: Molecule_POSCAR_08                      
  positions in cartesian coordinates
  No initial velocities read in
 


--------------------------------------------------------------------------------------------------------


 ion  position               nearest neighbor table
   1  0.306  0.616  0.505-  30 1.09  31 1.13  29 1.13   2 1.50
   2  0.330  0.581  0.531-  32 1.11  33 1.12   1 1.50   3 1.50
   3  0.299  0.553  0.559-  35 1.11  34 1.12   4 1.50   2 1.50
   4  0.265  0.530  0.532-  37 1.10  36 1.11   3 1.50   5 1.53
   5  0.288  0.498  0.499-  38 1.07  39 1.12   6 1.48   4 1.53
   6  0.256  0.474  0.471-  41 1.13  40 1.14   7 1.47   5 1.48
   7  0.275  0.443  0.438-  42 1.16  43 1.16   8 1.45   6 1.47
   8  0.301  0.404  0.449-  44 1.15  45 1.16  65 1.43   7 1.45
   9  0.349  0.399  0.521-  67 1.25  65 1.43  10 1.48
  10  0.397  0.403  0.532-  27 1.32  11 1.38   9 1.48
  11  0.421  0.400  0.571-  46 1.11  10 1.38  71 1.73
  12  0.464  0.417  0.495-  27 1.37  13 1.42  71 1.81
  13  0.496  0.426  0.462-  16 1.40  12 1.42  72 1.80
  14  0.540  0.444  0.384-  47 1.05  15 1.40  72 1.82
  15  0.563  0.441  0.425-  16 1.30  14 1.40  26 1.50
  16  0.542  0.432  0.462-  15 1.30  13 1.40  17 1.49
  17  0.575  0.431  0.499-  68 1.25  66 1.43  16 1.49
  18  0.661  0.441  0.505-  48 1.10  49 1.12  66 1.45  19 1.51
  19  0.672  0.487  0.521-  50 1.09  51 1.11  18 1.51  20 1.53
  20  0.717  0.486  0.545-  53 1.10  52 1.11  21 1.51  19 1.53
  21  0.730  0.531  0.562-  54 1.09  55 1.11  20 1.51  22 1.52
  22  0.734  0.565  0.525-  57 1.10  56 1.12  23 1.51  21 1.52
  23  0.748  0.609  0.546-  58 1.09  59 1.11  22 1.51  24 1.53
  24  0.752  0.643  0.508-  60 1.10  61 1.12  25 1.50  23 1.53
  25  0.786  0.629  0.475-  62 1.11  64 1.12  63 1.12  24 1.50
  26  0.611  0.445  0.435-  69 1.25  66 1.41  15 1.50
  27  0.418  0.412  0.495-  10 1.32  12 1.37  28 1.49
  28  0.385  0.413  0.458-  70 1.25  65 1.43  27 1.49
  29  0.305  0.605  0.469-   1 1.13
  30  0.322  0.648  0.508-   1 1.09
  31  0.270  0.619  0.515-   1 1.13
  32  0.351  0.560  0.508-   2 1.11
  33  0.355  0.599  0.553-   2 1.12
  34  0.319  0.529  0.579-   3 1.12
  35  0.282  0.576  0.583-   3 1.11
  36  0.245  0.555  0.513-   4 1.11
  37  0.242  0.511  0.553-   4 1.10
  38  0.311  0.477  0.517-   5 1.07
  39  0.308  0.520  0.476-   5 1.12
  40  0.235  0.501  0.454-   6 1.14
  41  0.230  0.456  0.492-   6 1.13
  42  0.245  0.431  0.417-   7 1.16
  43  0.293  0.464  0.410-   7 1.16
  44  0.309  0.385  0.417-   8 1.15
  45  0.276  0.380  0.467-   8 1.16
  46  0.410  0.394  0.605-  11 1.11
  47  0.548  0.450  0.351-  14 1.05
  48  0.689  0.429  0.484-  18 1.10
  49  0.659  0.418  0.534-  18 1.12
  50  0.673  0.509  0.492-  19 1.09
  51  0.647  0.500  0.545-  19 1.11
  52  0.715  0.463  0.574-  20 1.11
  53  0.743  0.473  0.523-  20 1.10
  54  0.708  0.542  0.589-  21 1.09
  55  0.764  0.527  0.576-  21 1.11
  56  0.701  0.570  0.508-  22 1.12
  57  0.759  0.556  0.500-  22 1.10
  58  0.724  0.621  0.571-  23 1.09
  59  0.780  0.604  0.562-  23 1.11
  60  0.719  0.647  0.492-  24 1.10
  61  0.762  0.676  0.523-  24 1.12
  62  0.808  0.603  0.489-  25 1.11
  63  0.808  0.658  0.466-  25 1.12
  64  0.769  0.615  0.445-  25 1.12
  65  0.341  0.405  0.475-   9 1.43   8 1.43  28 1.43
  66  0.619  0.439  0.481-  26 1.41  17 1.43  18 1.45
  67  0.318  0.391  0.548-   9 1.25
  68  0.568  0.424  0.540-  17 1.25
  69  0.643  0.453  0.409-  26 1.25
  70  0.391  0.420  0.417-  28 1.25
  71  0.476  0.410  0.554-  11 1.73  12 1.81
  72  0.483  0.434  0.404-  13 1.80  14 1.82
 
  LATTYP: Found a simple cubic cell.
 ALAT       =    30.0000000000
  
  Lattice vectors:
  
 A1 = (  30.0000000000,   0.0000000000,   0.0000000000)
 A2 = (   0.0000000000,  30.0000000000,   0.0000000000)
 A3 = (   0.0000000000,   0.0000000000,  30.0000000000)


Analysis of symmetry for initial positions (statically):
=====================================================================
 Subroutine PRICEL returns:
 Original cell was already a primitive cell.
 

 Routine SETGRP: Setting up the symmetry group for a 
 simple cubic supercell.


 Subroutine GETGRP returns: Found  1 space group operations
 (whereof  1 operations were pure point group operations)
 out of a pool of 48 trial point group operations.


The static configuration has the point symmetry C_1 .


Analysis of symmetry for dynamics (positions and initial velocities):
=====================================================================
 Subroutine PRICEL returns:
 Original cell was already a primitive cell.
 

 Routine SETGRP: Setting up the symmetry group for a 
 simple cubic supercell.


 Subroutine GETGRP returns: Found  1 space group operations
 (whereof  1 operations were pure point group operations)
 out of a pool of 48 trial point group operations.


The dynamic configuration has the point symmetry C_1 .
 
 
 KPOINTS: Gamma-point only                        

Automatic generation of k-mesh.
Space group operators:
 irot       det(A)        alpha          n_x          n_y          n_z        tau_x        tau_y        tau_z
    1     1.000000     0.000000     1.000000     0.000000     0.000000     0.000000     0.000000     0.000000
 
 Subroutine IBZKPT returns following result:
 ===========================================
 
 Found      1 irreducible k-points:
 
 Following reciprocal coordinates:
            Coordinates               Weight
  0.000000  0.000000  0.000000      1.000000
 
 Following cartesian coordinates:
            Coordinates               Weight
  0.000000  0.000000  0.000000      1.000000
 
 
 Subroutine IBZKPT_HF returns following result:
 ==============================================
 
 Found      1 k-points in 1st BZ
 the following      1 k-points will be used (e.g. in the exchange kernel)
 Following reciprocal coordinates:   # in IRBZ
  0.000000  0.000000  0.000000    1.00000000   1 t-inv F


--------------------------------------------------------------------------------------------------------




 Dimension of arrays:
   k-points           NKPTS =      1   k-points in BZ     NKDIM =      1   number of bands    NBANDS=    136
   number of dos      NEDOS =    301   number of ions     NIONS =     72
   non local maximal  LDIM  =      4   non local SUM 2l+1 LMDIM =      8
   total plane-waves  NPLWV = ******
   max r-space proj   IRMAX =      1   max aug-charges    IRDMAX=   5732
   dimension x,y,z NGX =   168 NGY =  168 NGZ =  168
   dimension x,y,z NGXF=   336 NGYF=  336 NGZF=  336
   support grid    NGXF=   336 NGYF=  336 NGZF=  336
   ions per type =              28  36   2   4   2
 NGX,Y,Z   is equivalent  to a cutoff of   9.31,  9.31,  9.31 a.u.
 NGXF,Y,Z  is equivalent  to a cutoff of  18.62, 18.62, 18.62 a.u.


 I would recommend the setting:
   dimension x,y,z NGX =   164 NGY =  164 NGZ =  164
 SYSTEM =  Step2_PBE0_Final_Calc                   
 POSCAR =  Molecule_POSCAR_08                      

 Startparameter for this run:
   NWRITE =      2    write-flag & timer
   PREC   = normal    normal or accurate (medium, high low for compatibility)
   ISTART =      1    job   : 0-new  1-cont  2-samecut
   ICHARG =      0    charge: 1-file 2-atom 10-const
   ISPIN  =      1    spin polarized calculation?
   LNONCOLLINEAR =      F non collinear calculations
   LSORBIT =      F    spin-orbit coupling
   INIWAV =      1    electr: 0-lowe 1-rand  2-diag
   LASPH  =      T    aspherical Exc in radial PAW
   METAGGA=      F    non-selfconsistent MetaGGA calc.

 Electronic Relaxation 1
   ENCUT  =  500.0 eV  36.75 Ry    6.06 a.u.  54.70 54.70 54.70*2*pi/ulx,y,z
   ENINI  =  500.0     initial cutoff
   ENAUG  =  644.9 eV  augmentation charge cutoff
   NELM   =    100;   NELMIN=  2; NELMDL=  0     # of ELM steps 
   EDIFF  = 0.1E-05   stopping-criterion for ELM
   LREAL  =      F    real-space projection
   NLSPLINE    = F    spline interpolate recip. space projectors
   LCOMPAT=      F    compatible to vasp.4.4
   GGA_COMPAT  = T    GGA compatible to vasp.4.4-vasp.4.6
   LMAXPAW     = -100 max onsite density
   LMAXMIX     =    2 max onsite mixed and CHGCAR
   VOSKOWN=      0    Vosko Wilk Nusair interpolation
   ROPT   =    0.00000   0.00000   0.00000   0.00000
   ROPT   =    0.00000
 Ionic relaxation
   EDIFFG = 0.1E-04   stopping-criterion for IOM
   NSW    =      0    number of steps for IOM
   NBLOCK =      1;   KBLOCK =      1    inner block; outer block 
   IBRION =     -1    ionic relax: 0-MD 1-quasi-New 2-CG
   NFREE  =      0    steps in history (QN), initial steepest desc. (CG)
   ISIF   =      0    stress and relaxation
   IWAVPR =     10    prediction:  0-non 1-charg 2-wave 3-comb
   ISYM   =      3    0-nonsym 1-usesym 2-fastsym
   LCORR  =      T    Harris-Foulkes like correction to forces

   POTIM  = 0.5000    time-step for ionic-motion
   TEIN   =    0.0    initial temperature
   TEBEG  =    0.0;   TEEND  =   0.0 temperature during run
   SMASS  =  -3.00    Nose mass-parameter (am)
   estimated Nose-frequenzy (Omega)   =  0.10E-29 period in steps =****** mass=  -0.206E-25a.u.
   SCALEE = 1.0000    scale energy and forces
   NPACO  =    256;   APACO  = 16.0  distance and # of slots for P.C.
   PSTRESS=    0.0 pullay stress

  Mass of Ions in am
   POMASS =  12.01  1.00 14.00 16.00 32.07
  Ionic Valenz
   ZVAL   =   4.00  1.00  5.00  6.00  6.00
  Atomic Wigner-Seitz radii
   RWIGS  =  -1.00 -1.00 -1.00 -1.00 -1.00
  virtual crystal weights 
   VCA    =   1.00  1.00  1.00  1.00  1.00
   NELECT =     194.0000    total number of electrons
   NUPDOWN=      -1.0000    fix difference up-down

 DOS related values:
   EMIN   =  10.00;   EMAX   =-10.00  energy-range for DOS
   EFERMI =   0.00
   ISMEAR =     0;   SIGMA  =   0.05  broadening in eV -4-tet -1-fermi 0-gaus

 Electronic relaxation 2 (details)
   IALGO  =     58    algorithm
   LDIAG  =      T    sub-space diagonalisation (order eigenvalues)
   LSUBROT=      F    optimize rotation matrix (better conditioning)
   TURBO    =      0    0=normal 1=particle mesh
   IRESTART =      0    0=no restart 2=restart with 2 vectors
   NREBOOT  =      0    no. of reboots
   NMIN     =      0    reboot dimension
   EREF     =   0.00    reference energy to select bands
   IMIX   =      4    mixing-type and parameters
     AMIX     =   0.40;   BMIX     =  1.00
     AMIX_MAG =   1.60;   BMIX_MAG =  1.00
     AMIN     =   0.10
     WC   =   100.;   INIMIX=   1;  MIXPRE=   1;  MAXMIX= -45

 Intra band minimization:
   WEIMIN = 0.0000     energy-eigenvalue tresh-hold
   EBREAK =  0.18E-08  absolut break condition
   DEPER  =   0.30     relativ break condition  

   TIME   =   0.40     timestep for ELM

  volume/ion in A,a.u.               =     375.00      2530.62
  Fermi-wavevector in a.u.,A,eV,Ry     =   0.315903  0.596971  1.357792  0.099795
  Thomas-Fermi vector in A             =   1.198480
 
 Write flags
   LWAVE  =      F    write WAVECAR
   LCHARG =      F    write CHGCAR
   LVTOT  =      F    write LOCPOT, total local potential
   LVHAR  =      F    write LOCPOT, Hartree potential only
   LELF   =      F    write electronic localiz. function (ELF)
   LORBIT =      0    0 simple, 1 ext, 2 COOP (PROOUT)


 Dipole corrections
   LMONO  =      F    monopole corrections only (constant potential shift)
   LDIPOL =      F    correct potential (dipole corrections)
   IDIPOL =      0    1-x, 2-y, 3-z, 4-all directions 
   EPSILON=  1.0000000 bulk dielectric constant

 Exchange correlation treatment:
   GGA     =    PE    GGA type
   LEXCH   =     8    internal setting for exchange type
   VOSKOWN=      0    Vosko Wilk Nusair interpolation
   EXXOEP  =     0    0=HF, 1=EXX-LHF (local Hartree Fock) 2=EXX OEP
   LHFCALC =     T    Hartree Fock is set to
   LSYMGRAD=     F    symmetrize gradient (conserves proper symmetry)
   PRECFOCK=fast      Normal, Fast or Accurate (Low or Medium for compatibility)
   LRHFCALC=     F    long range Hartree Fock
   LRSCOR  =     F    long range correlation only (use DFT for short range part)
   LTHOMAS =     F    Thomas Fermi screening in HF
   LMODELHF=     F    short range full HF, long range fraction AEXX
   ENCUT4O =  -1.0   cutoff for four orbital integrals eV
   LMAXFOCK=     4    L truncation for augmentation on plane wave grid
   LMAXFOCKAE=  -1    L truncation for all-electron charge restoration on plane wave grid
   NMAXFOCKAE=   1    number of basis functions for all-electron charge restoration
   LFOCKAEDFT=     F  apply the AE augmentation even for DFT
   NKREDX  =     1    reduce k-point grid by
   NKREDY  =     1    reduce k-point grid by
   NKREDZ  =     1    reduce k-point grid by
   SHIFTRED=     F    shift reduced grid of Gamma
   HFKIDENT=     F    idential grid for each k-point
   ODDONLY =     F    use only odd q-grid points
   EVENONLY=     F    use only even q-grid points
   HFALPHA =   -1.0000 decay constant for conv. correction
   MCALPHA =    0.0000 extent of test-charge in conv. correction in multipole expansion
   AEXX    =    0.2500 exact exchange contribution
   HFSCREEN=    0.0000 screening length (either q_TF or 0.3 A-1)
   HFSCREENC=   0.0000 screening length for correlation (either q_TF or 0.3 A-1)
   HFRCUT  =    0.0000 spherical cutoff for potential kernel
   ALDAX   =    0.7500 LDA exchange part
   AGGAX   =    0.7500 GGA exchange part
   ALDAC   =    1.0000 LDA correlation
   AGGAC   =    1.0000 GGA correlation
   NBANDSGWLOW=     1    first orbital included in HF term
   ENCUTFOCK=  -1.0 apply spherical cutoff to Coloumb kernel
 Linear response parameters
   LEPSILON=     F    determine dielectric tensor
   LRPA    =     F    only Hartree local field effects (RPA)
   LNABLA  =     F    use nabla operator in PAW spheres
   LVEL    =     F    velocity operator in full k-point grid
   LINTERFAST=   F  fast interpolation
   KINTER  =     0    interpolate to denser k-point grid
   CSHIFT  =0.1000    complex shift for real part using Kramers Kronig
   OMEGAMAX=  -1.0    maximum frequency
   DEG_THRESHOLD= 0.2000000E-02 threshold for treating states as degnerate
   RTIME   =    0.100 relaxation time in fs

 Orbital magnetization related:
   ORBITALMAG=     F  switch on orbital magnetization
   LCHIMAG   =     F  perturbation theory with respect to B field
   DQ        =  0.001000  dq finite difference perturbation B field



--------------------------------------------------------------------------------------------------------


 Static calculation
 charge density and potential will be updated during run
 non-spin polarized calculation
 Conjugate gradient for all bands (Freysoldt, et al. PRB 79, 241103 (2009))
 preconditioned conjugated gradient                                        
 perform sub-space diagonalisation
    before iterative eigenvector-optimisation
 modified Broyden-mixing scheme, WC =      100.0
 initial mixing is a Kerker type mixing with AMIX =  0.4000 and BMIX =      1.0000
 Hartree-type preconditioning will be used
 using additional bands           39
 reciprocal scheme for non local part
 use partial core corrections
 no Harris-corrections to forces 
 use gradient corrections 
 use of overlap-Matrix (Vanderbilt PP)
 Gauss-broadening in eV      SIGMA  =   0.05


--------------------------------------------------------------------------------------------------------


  energy-cutoff  :      500.00
  volume of cell :    27000.00
      direct lattice vectors                 reciprocal lattice vectors
    30.000000000  0.000000000  0.000000000     0.033333333  0.000000000  0.000000000
     0.000000000 30.000000000  0.000000000     0.000000000  0.033333333  0.000000000
     0.000000000  0.000000000 30.000000000     0.000000000  0.000000000  0.033333333

  length of vectors
    30.000000000 30.000000000 30.000000000     0.033333333  0.033333333  0.033333333


 
 old parameters found on file WAVECAR:
  energy-cutoff  :      500.00
  volume of cell :    27000.00
      direct lattice vectors                 reciprocal lattice vectors
    30.000000000  0.000000000  0.000000000     0.033333333  0.000000000  0.000000000
     0.000000000 30.000000000  0.000000000     0.000000000  0.033333333  0.000000000
     0.000000000  0.000000000 30.000000000     0.000000000  0.000000000  0.033333333

  length of vectors

 
 k-points in units of 2pi/SCALE and weight: Gamma-point only                        
   0.00000000  0.00000000  0.00000000       1.000
 
 k-points in reciprocal lattice and weights: Gamma-point only                        
   0.00000000  0.00000000  0.00000000       1.000
 
 position of ions in fractional coordinates (direct lattice) 
   0.30586117  0.61582687  0.50496183
   0.33003013  0.58093267  0.53126887
   0.29891910  0.55336357  0.55908557
   0.26479307  0.52952133  0.53156180
   0.28841240  0.49834080  0.49881907
   0.25579407  0.47362853  0.47104237
   0.27536807  0.44323167  0.43780353
   0.30082843  0.40389150  0.44915737
   0.34856277  0.39885497  0.52139363
   0.39663657  0.40331223  0.53196617
   0.42121903  0.40046520  0.57090837
   0.46357547  0.41735890  0.49539990
   0.49564287  0.42649450  0.46202550
   0.54008687  0.44389787  0.38429530
   0.56278820  0.44060650  0.42491360
   0.54191757  0.43232693  0.46212923
   0.57521117  0.43091583  0.49915973
   0.66080640  0.44083487  0.50467087
   0.67162883  0.48733503  0.52085967
   0.71651873  0.48571577  0.54473133
   0.72994243  0.53105667  0.56212103
   0.73412513  0.56523297  0.52504327
   0.74768093  0.60896787  0.54616833
   0.75174320  0.64318427  0.50837470
   0.78606673  0.62880610  0.47513200
   0.61135333  0.44518043  0.43519827
   0.41828353  0.41175587  0.49463217
   0.38504880  0.41322927  0.45756083
   0.30498947  0.60532473  0.46884270
   0.32230350  0.64801707  0.50794027
   0.26976567  0.61850963  0.51504630
   0.35057680  0.56038253  0.50815470
   0.35503023  0.59853123  0.55279797
   0.31921020  0.52947517  0.57912617
   0.28196090  0.57615870  0.58280653
   0.24490113  0.55484223  0.51345350
   0.24198847  0.51085610  0.55324853
   0.31050550  0.47655693  0.51659437
   0.30767690  0.52048160  0.47571017
   0.23451900  0.50051987  0.45444217
   0.23006320  0.45617783  0.49228107
   0.24508273  0.43058253  0.41714563
   0.29285423  0.46387210  0.40998257
   0.30897010  0.38510913  0.41686253
   0.27631253  0.37970227  0.46670017
   0.40973650  0.39375690  0.60531900
   0.54784657  0.44996660  0.35070570
   0.68851027  0.42920567  0.48356553
   0.65949953  0.41828657  0.53424020
   0.67269497  0.50923893  0.49191093
   0.64656290  0.49971833  0.54505447
   0.71505797  0.46320640  0.57398090
   0.74290157  0.47316280  0.52261040
   0.70822610  0.54227423  0.58908217
   0.76400647  0.52689847  0.57638020
   0.70097870  0.56970917  0.50818530
   0.75946287  0.55586387  0.50048417
   0.72419273  0.62099507  0.57138320
   0.78040067  0.60368110  0.56239617
   0.71890590  0.64704333  0.49215623
   0.76205830  0.67587913  0.52303680
   0.80773167  0.60250170  0.48932007
   0.80782067  0.65778453  0.46628940
   0.76899983  0.61547740  0.44485893
   0.34117717  0.40507497  0.47466813
   0.61852433  0.43908260  0.48136303
   0.31790873  0.39084840  0.54837353
   0.56796670  0.42386947  0.53959483
   0.64277923  0.45315147  0.40883333
   0.39143513  0.42025893  0.41684613
   0.47562170  0.40990477  0.55409743
   0.48343717  0.43379060  0.40374423
 
 position of ions in cartesian coordinates  (Angst):
   9.17583500 18.47480600 15.14885500
   9.90090400 17.42798000 15.93806600
   8.96757300 16.60090700 16.77256700
   7.94379200 15.88564000 15.94685400
   8.65237200 14.95022400 14.96457200
   7.67382200 14.20885600 14.13127100
   8.26104200 13.29695000 13.13410600
   9.02485300 12.11674500 13.47472100
  10.45688300 11.96564900 15.64180900
  11.89909700 12.09936700 15.95898500
  12.63657100 12.01395600 17.12725100
  13.90726400 12.52076700 14.86199700
  14.86928600 12.79483500 13.86076500
  16.20260600 13.31693600 11.52885900
  16.88364600 13.21819500 12.74740800
  16.25752700 12.96980800 13.86387700
  17.25633500 12.92747500 14.97479200
  19.82419200 13.22504600 15.14012600
  20.14886500 14.62005100 15.62579000
  21.49556200 14.57147300 16.34194000
  21.89827300 15.93170000 16.86363100
  22.02375400 16.95698900 15.75129800
  22.43042800 18.26903600 16.38505000
  22.55229600 19.29552800 15.25124100
  23.58200200 18.86418300 14.25396000
  18.34060000 13.35541300 13.05594800
  12.54850600 12.35267600 14.83896500
  11.55146400 12.39687800 13.72682500
   9.14968400 18.15974200 14.06528100
   9.66910500 19.44051200 15.23820800
   8.09297000 18.55528900 15.45138900
  10.51730400 16.81147600 15.24464100
  10.65090700 17.95593700 16.58393900
   9.57630600 15.88425500 17.37378500
   8.45882700 17.28476100 17.48419600
   7.34703400 16.64526700 15.40360500
   7.25965400 15.32568300 16.59745600
   9.31516500 14.29670800 15.49783100
   9.23030700 15.61444800 14.27130500
   7.03557000 15.01559600 13.63326500
   6.90189600 13.68533500 14.76843200
   7.35248200 12.91747600 12.51436900
   8.78562700 13.91616300 12.29947700
   9.26910300 11.55327400 12.50587600
   8.28937600 11.39106800 14.00100500
  12.29209500 11.81270700 18.15957000
  16.43539700 13.49899800 10.52117100
  20.65530800 12.87617000 14.50696600
  19.78498600 12.54859700 16.02720600
  20.18084900 15.27716800 14.75732800
  19.39688700 14.99155000 16.35163400
  21.45173900 13.89619200 17.21942700
  22.28704700 14.19488400 15.67831200
  21.24678300 16.26822700 17.67246500
  22.92019400 15.80695400 17.29140600
  21.02936100 17.09127500 15.24555900
  22.78388600 16.67591600 15.01452500
  21.72578200 18.62985200 17.14149600
  23.41202000 18.11043300 16.87188500
  21.56717700 19.41130000 14.76468700
  22.86174900 20.27637400 15.69110400
  24.23195000 18.07505100 14.67960200
  24.23462000 19.73353600 13.98868200
  23.06999500 18.46432200 13.34576800
  10.23531500 12.15224900 14.24004400
  18.55573000 13.17247800 14.44089100
   9.53726200 11.72545200 16.45120600
  17.03900100 12.71608400 16.18784500
  19.28337700 13.59454400 12.26500000
  11.74305400 12.60776800 12.50538400
  14.26865100 12.29714300 16.62292300
  14.50311500 13.01371800 12.11232700
 


--------------------------------------------------------------------------------------------------------


 use seriel FFT for wavefunctions x direction half grid
 k-point  1 :   0.0000 0.0000 0.0000  plane waves:  342683

 maximum and minimum number of plane-waves per node :    342683   342683

 maximum number of plane-waves:    342683
 maximum index in each direction: 
   IXMAX=   54   IYMAX=   54   IZMAX=   54
   IXMIN=    0   IYMIN=  -54   IZMIN=  -54

 WARNING: aliasing errors must be expected set NGX to 218 to avoid them
 WARNING: aliasing errors must be expected set NGY to 218 to avoid them
 WARNING: aliasing errors must be expected set NGZ to 218 to avoid them
 aliasing errors are usually negligible using standard VASP settings
 and one can safely disregard these warnings

 serial   3D FFT for wavefunctions
 parallel 3D FFT for charge:
    minimum data exchange during FFTs selected (reduces bandwidth)


 FFT grid for exact exchange (Hartree Fock) 
  NGX =112; NGY =112; NGZ =112

 use seriel FFT for wavefunctions x direction half grid
 
 Radii for the augmentation spheres in the non-local exchange
 for species   1 augmentation radius   0.944 (default was   0.699)
       energy cutoff for augmentation   2000.0
 for species   2 augmentation radius   0.702 (default was   0.520)
       energy cutoff for augmentation   2000.0
 for species   3 augmentation radius   0.957 (default was   0.709)
       energy cutoff for augmentation   2000.0
 for species   4 augmentation radius   0.974 (default was   0.722)
       energy cutoff for augmentation   2000.0
 for species   5 augmentation radius   1.309 (default was   0.970)
       energy cutoff for augmentation   2000.0
 Maximum index for augmentation-charges in exchange          486
  SETUP_FOCK is finished

 total amount of memory used by VASP on root node  2386237. kBytes
========================================================================

   base      :      30000. kBytes
   nonl-proj :     504430. kBytes
   fftplans  :     338850. kBytes
   grid      :     952390. kBytes
   one-center:        110. kBytes
   HF        :         23. kBytes
   nonlr-proj:        793. kBytes
   wavefun   :     559641. kBytes
 
     INWAV:  cpu time    0.8650: real time    3.8060
 Broyden mixing: mesh for mixing (old mesh)
   NGX =109   NGY =109   NGZ =109
  (NGX  =336   NGY  =336   NGZ  =336)
  gives a total of ****** points

 charge density for first step will be calculated from the start-wavefunctions


--------------------------------------------------------------------------------------------------------


 Maximum index for augmentation-charges         1351 (set IRDMAX)


--------------------------------------------------------------------------------------------------------


 initial charge from wavefunction
 FEWALD executed in parallel
    FEWALD:  cpu time    0.0036: real time    0.0036


----------------------------------------- Iteration    1(   1)  ---------------------------------------


    POTLOK:  cpu time    3.0908: real time    3.0979
    SETDIJ:  cpu time    0.4758: real time    0.4768
    TRIAL :  cpu time  211.2799: real time  211.9829
    CORREC:  cpu time  190.7961: real time  191.4187
    CHARGE:  cpu time    2.8557: real time    2.8650
    --------------------------------------------
      LOOP:  cpu time  408.5598: real time  409.9160

 eigenvalue-minimisations  :     0
 total energy-change (2. order) :-0.5316686E+03  (-0.4878833E+00)
 number of electron     194.0000012 magnetization 
 augmentation part        4.7108396 magnetization 

 Free energy of the ion-electron system (eV)
  ---------------------------------------------------
  alpha Z        PSCENC =         6.09863443
  Ewald energy   TEWEN  =     28320.12409812
  -Hartree energ DENC   =    -34331.76611337
  -exchange      EXHF   =       523.22927655
  -V(xc)+E(xc)   XCENC  =       511.29469195
  PAW double counting   =     16716.32829522   -16731.30383969
  entropy T*S    EENTRO =        -0.00000000
  eigenvalues    EBANDS =     -2816.84530902
  atomic energy  EATOM  =      7271.17162370
  ---------------------------------------------------
  free energy    TOTEN  =      -531.66864211 eV

  energy without entropy =     -531.66864211  energy(sigma->0) =     -531.66864211
  exchange ACFDT corr.  =        -0.00000000  see jH, gK, PRB 81, 115126


--------------------------------------------------------------------------------------------------------




----------------------------------------- Iteration    1(   2)  ---------------------------------------


    POTLOK:  cpu time    3.7040: real time    3.7143
    SETDIJ:  cpu time    0.4787: real time    0.4795
    TRIAL :  cpu time  212.7314: real time  213.3933
    CORREC:  cpu time  190.9514: real time  191.5364
    CHARGE:  cpu time    2.7669: real time    2.7752
    --------------------------------------------
      LOOP:  cpu time  410.6328: real time  411.9003

 eigenvalue-minimisations  :     0
 total energy-change (2. order) :-0.4925697E+00  (-0.9851645E-01)
 number of electron     194.0000012 magnetization 
 augmentation part        4.6921126 magnetization 

 Free energy of the ion-electron system (eV)
  ---------------------------------------------------
  alpha Z        PSCENC =         6.09863443
  Ewald energy   TEWEN  =     28320.12409812
  -Hartree energ DENC   =    -34335.17476573
  -exchange      EXHF   =       524.00047035
  -V(xc)+E(xc)   XCENC  =       511.38564451
  PAW double counting   =     17631.86378988   -17646.38609970
  entropy T*S    EENTRO =        -0.00000000
  eigenvalues    EBANDS =     -2815.24460734
  atomic energy  EATOM  =      7271.17162370
  ---------------------------------------------------
  free energy    TOTEN  =      -532.16121180 eV

  energy without entropy =     -532.16121180  energy(sigma->0) =     -532.16121180
  exchange ACFDT corr.  =        -0.00000000  see jH, gK, PRB 81, 115126


--------------------------------------------------------------------------------------------------------




----------------------------------------- Iteration    1(   3)  ---------------------------------------


    POTLOK:  cpu time    3.6381: real time    3.6486
    SETDIJ:  cpu time    0.4791: real time    0.4802
    TRIAL :  cpu time  213.7276: real time  214.3946
    CORREC:  cpu time  189.8679: real time  190.4529
    CHARGE:  cpu time    2.8351: real time    2.8438
    --------------------------------------------
      LOOP:  cpu time  410.5481: real time  411.8210

 eigenvalue-minimisations  :     0
 total energy-change (2. order) :-0.9852399E-01  (-0.3775626E-01)
 number of electron     194.0000012 magnetization 
 augmentation part        4.6899469 magnetization 

 Free energy of the ion-electron system (eV)
  ---------------------------------------------------
  alpha Z        PSCENC =         6.09863443
  Ewald energy   TEWEN  =     28320.12409812
  -Hartree energ DENC   =    -34327.68696352
  -exchange      EXHF   =       523.88228504
  -V(xc)+E(xc)   XCENC  =       511.10066591
  PAW double counting   =     17919.45026117   -17933.87263468
  entropy T*S    EENTRO =        -0.00000000
  eigenvalues    EBANDS =     -2822.52770594
  atomic energy  EATOM  =      7271.17162370
  ---------------------------------------------------
  free energy    TOTEN  =      -532.25973579 eV

  energy without entropy =     -532.25973579  energy(sigma->0) =     -532.25973579
  exchange ACFDT corr.  =         0.00000000  see jH, gK, PRB 81, 115126


--------------------------------------------------------------------------------------------------------




----------------------------------------- Iteration    1(   4)  ---------------------------------------


    POTLOK:  cpu time    3.7759: real time    3.7877
    SETDIJ:  cpu time    0.4811: real time    0.4823
    TRIAL :  cpu time  214.6188: real time  215.2917
    CORREC:  cpu time  188.5296: real time  189.1040
    CHARGE:  cpu time    2.7119: real time    2.7198
    --------------------------------------------
      LOOP:  cpu time  410.1178: real time  411.3870

 eigenvalue-minimisations  :     0
 total energy-change (2. order) :-0.3781690E-01  (-0.1413667E-01)
 number of electron     194.0000012 magnetization 
 augmentation part        4.6949789 magnetization 

 Free energy of the ion-electron system (eV)
  ---------------------------------------------------
  alpha Z        PSCENC =         6.09863443
  Ewald energy   TEWEN  =     28320.12409812
  -Hartree energ DENC   =    -34333.13649478
  -exchange      EXHF   =       524.20660951
  -V(xc)+E(xc)   XCENC  =       511.30528951
  PAW double counting   =     18058.67770026   -18073.05525205
  entropy T*S    EENTRO =        -0.00000000
  eigenvalues    EBANDS =     -2817.68976138
  atomic energy  EATOM  =      7271.17162370
  ---------------------------------------------------
  free energy    TOTEN  =      -532.29755269 eV

  energy without entropy =     -532.29755269  energy(sigma->0) =     -532.29755269
  exchange ACFDT corr.  =        -0.00000000  see jH, gK, PRB 81, 115126


--------------------------------------------------------------------------------------------------------




----------------------------------------- Iteration    1(   5)  ---------------------------------------


    POTLOK:  cpu time    3.6257: real time    3.6361
    SETDIJ:  cpu time    0.4795: real time    0.4804
    TRIAL :  cpu time  215.4325: real time  216.1082
    CORREC:  cpu time  189.1625: real time  189.7440
    CHARGE:  cpu time    2.7198: real time    2.7275
    --------------------------------------------
      LOOP:  cpu time  411.4204: real time  412.6979

 eigenvalue-minimisations  :     0
 total energy-change (2. order) :-0.1415864E-01  (-0.7193996E-02)
 number of electron     194.0000012 magnetization 
 augmentation part        4.6961880 magnetization 

 Free energy of the ion-electron system (eV)
  ---------------------------------------------------
  alpha Z        PSCENC =         6.09863443
  Ewald energy   TEWEN  =     28320.12409812
  -Hartree energ DENC   =    -34336.36407772
  -exchange      EXHF   =       524.39671680
  -V(xc)+E(xc)   XCENC  =       511.43878659
  PAW double counting   =     18083.77310001   -18098.16321321
  entropy T*S    EENTRO =        -0.00000000
  eigenvalues    EBANDS =     -2814.78738005
  atomic energy  EATOM  =      7271.17162370
  ---------------------------------------------------
  free energy    TOTEN  =      -532.31171133 eV

  energy without entropy =     -532.31171133  energy(sigma->0) =     -532.31171133
  exchange ACFDT corr.  =        -0.00000000  see jH, gK, PRB 81, 115126


--------------------------------------------------------------------------------------------------------




----------------------------------------- Iteration    1(   6)  ---------------------------------------


    POTLOK:  cpu time    3.6163: real time    3.6263
    SETDIJ:  cpu time    0.4787: real time    0.4801
    TRIAL :  cpu time  215.3536: real time  216.0329
    CORREC:  cpu time  188.9379: real time  189.5232
    CHARGE:  cpu time    2.7244: real time    2.7322
    --------------------------------------------
      LOOP:  cpu time  411.1111: real time  412.3955

 eigenvalue-minimisations  :     0
 total energy-change (2. order) :-0.7201586E-02  (-0.3125309E-02)
 number of electron     194.0000012 magnetization 
 augmentation part        4.6977493 magnetization 

 Free energy of the ion-electron system (eV)
  ---------------------------------------------------
  alpha Z        PSCENC =         6.09863443
  Ewald energy   TEWEN  =     28320.12409812
  -Hartree energ DENC   =    -34334.67664993
  -exchange      EXHF   =       524.38613363
  -V(xc)+E(xc)   XCENC  =       511.40703469
  PAW double counting   =     18054.42823320   -18068.83379249
  entropy T*S    EENTRO =        -0.00000000
  eigenvalues    EBANDS =     -2816.42422826
  atomic energy  EATOM  =      7271.17162370
  ---------------------------------------------------
  free energy    TOTEN  =      -532.31891291 eV

  energy without entropy =     -532.31891291  energy(sigma->0) =     -532.31891291
  exchange ACFDT corr.  =         0.00000000  see jH, gK, PRB 81, 115126


--------------------------------------------------------------------------------------------------------




----------------------------------------- Iteration    1(   7)  ---------------------------------------


    POTLOK:  cpu time    3.6288: real time    3.6396
    SETDIJ:  cpu time    0.4799: real time    0.4809
    TRIAL :  cpu time  216.4263: real time  217.1069
    CORREC:  cpu time  188.7710: real time  189.3516
    CHARGE:  cpu time    2.7133: real time    2.7215
    --------------------------------------------
      LOOP:  cpu time  412.0196: real time  413.3012

 eigenvalue-minimisations  :     0
 total energy-change (2. order) :-0.3127978E-02  (-0.1207091E-02)
 number of electron     194.0000012 magnetization 
 augmentation part        4.6995741 magnetization 

 Free energy of the ion-electron system (eV)
  ---------------------------------------------------
  alpha Z        PSCENC =         6.09863443
  Ewald energy   TEWEN  =     28320.12409812
  -Hartree energ DENC   =    -34334.23036531
  -exchange      EXHF   =       524.38277545
  -V(xc)+E(xc)   XCENC  =       511.39974989
  PAW double counting   =     18013.17138621   -18027.58795535
  entropy T*S    EENTRO =        -0.00000000
  eigenvalues    EBANDS =     -2816.85198803
  atomic energy  EATOM  =      7271.17162370
  ---------------------------------------------------
  free energy    TOTEN  =      -532.32204089 eV

  energy without entropy =     -532.32204089  energy(sigma->0) =     -532.32204089
  exchange ACFDT corr.  =         0.00000000  see jH, gK, PRB 81, 115126


--------------------------------------------------------------------------------------------------------




----------------------------------------- Iteration    1(   8)  ---------------------------------------


    POTLOK:  cpu time    3.6421: real time    3.6524
    SETDIJ:  cpu time    0.4789: real time    0.4803
    TRIAL :  cpu time  213.0954: real time  213.7621
    CORREC:  cpu time  190.8258: real time  191.4195
    CHARGE:  cpu time    2.7175: real time    2.7256
    --------------------------------------------
      LOOP:  cpu time  410.7601: real time  412.0414

 eigenvalue-minimisations  :     0
 total energy-change (2. order) :-0.1207676E-02  (-0.4226445E-03)
 number of electron     194.0000012 magnetization 
 augmentation part        4.6996614 magnetization 

 Free energy of the ion-electron system (eV)
  ---------------------------------------------------
  alpha Z        PSCENC =         6.09863443
  Ewald energy   TEWEN  =     28320.12409812
  -Hartree energ DENC   =    -34335.29012319
  -exchange      EXHF   =       524.41048891
  -V(xc)+E(xc)   XCENC  =       511.42624833
  PAW double counting   =     17988.88192671   -18003.30848560
  entropy T*S    EENTRO =        -0.00000000
  eigenvalues    EBANDS =     -2815.83765998
  atomic energy  EATOM  =      7271.17162370
  ---------------------------------------------------
  free energy    TOTEN  =      -532.32324857 eV

  energy without entropy =     -532.32324857  energy(sigma->0) =     -532.32324857
  exchange ACFDT corr.  =         0.00000000  see jH, gK, PRB 81, 115126


--------------------------------------------------------------------------------------------------------




----------------------------------------- Iteration    1(   9)  ---------------------------------------


    POTLOK:  cpu time    3.6014: real time    3.6114
    SETDIJ:  cpu time    0.4799: real time    0.4813
    TRIAL :  cpu time  213.1955: real time  213.8630
    CORREC:  cpu time  190.7101: real time  191.3038
    CHARGE:  cpu time    2.8244: real time    2.8328
    --------------------------------------------
      LOOP:  cpu time  410.8117: real time  412.0939

 eigenvalue-minimisations  :     0
 total energy-change (2. order) :-0.4228651E-03  (-0.1532023E-03)
 number of electron     194.0000012 magnetization 
 augmentation part        4.6996397 magnetization 

 Free energy of the ion-electron system (eV)
  ---------------------------------------------------
  alpha Z        PSCENC =         6.09863443
  Ewald energy   TEWEN  =     28320.12409812
  -Hartree energ DENC   =    -34335.12561919
  -exchange      EXHF   =       524.40326136
  -V(xc)+E(xc)   XCENC  =       511.41971626
  PAW double counting   =     17979.86196230   -17994.29070376
  entropy T*S    EENTRO =        -0.00000000
  eigenvalues    EBANDS =     -2815.98664466
  atomic energy  EATOM  =      7271.17162370
  ---------------------------------------------------
  free energy    TOTEN  =      -532.32367143 eV

  energy without entropy =     -532.32367143  energy(sigma->0) =     -532.32367143
  exchange ACFDT corr.  =        -0.00000000  see jH, gK, PRB 81, 115126


--------------------------------------------------------------------------------------------------------




----------------------------------------- Iteration    1(  10)  ---------------------------------------


    POTLOK:  cpu time    3.6675: real time    3.6784
    SETDIJ:  cpu time    0.4780: real time    0.4794
    TRIAL :  cpu time  212.5156: real time  213.2255
    CORREC:  cpu time  190.4603: real time  191.0490
    CHARGE:  cpu time    2.8289: real time    2.8375
    --------------------------------------------
      LOOP:  cpu time  409.9507: real time  411.2717

 eigenvalue-minimisations  :     0
 total energy-change (2. order) :-0.1532989E-03  (-0.6007800E-04)
 number of electron     194.0000012 magnetization 
 augmentation part        4.6998211 magnetization 

 Free energy of the ion-electron system (eV)
  ---------------------------------------------------
  alpha Z        PSCENC =         6.09863443
  Ewald energy   TEWEN  =     28320.12409812
  -Hartree energ DENC   =    -34334.89410035
  -exchange      EXHF   =       524.39555230
  -V(xc)+E(xc)   XCENC  =       511.41253007
  PAW double counting   =     17979.88706562   -17994.31494223
  entropy T*S    EENTRO =        -0.00000000
  eigenvalues    EBANDS =     -2816.20428640
  atomic energy  EATOM  =      7271.17162370
  ---------------------------------------------------
  free energy    TOTEN  =      -532.32382473 eV

  energy without entropy =     -532.32382473  energy(sigma->0) =     -532.32382473
  exchange ACFDT corr.  =        -0.00000000  see jH, gK, PRB 81, 115126


--------------------------------------------------------------------------------------------------------




----------------------------------------- Iteration    1(  11)  ---------------------------------------


    POTLOK:  cpu time    3.7317: real time    3.7433
    SETDIJ:  cpu time    0.4820: real time    0.4832
    TRIAL :  cpu time  213.5060: real time  214.1746
    CORREC:  cpu time  188.7750: real time  189.3565
    CHARGE:  cpu time    2.7170: real time    2.7245
    --------------------------------------------
      LOOP:  cpu time  409.2120: real time  410.4831

 eigenvalue-minimisations  :     0
 total energy-change (2. order) :-0.5991851E-04  (-0.2622663E-04)
 number of electron     194.0000012 magnetization 
 augmentation part        4.6997986 magnetization 

 Free energy of the ion-electron system (eV)
  ---------------------------------------------------
  alpha Z        PSCENC =         6.09863443
  Ewald energy   TEWEN  =     28320.12409812
  -Hartree energ DENC   =    -34335.12185124
  -exchange      EXHF   =       524.40086976
  -V(xc)+E(xc)   XCENC  =       511.41717523
  PAW double counting   =     17983.88510421   -17998.31244206
  entropy T*S    EENTRO =        -0.00000000
  eigenvalues    EBANDS =     -2815.98709680
  atomic energy  EATOM  =      7271.17162370
  ---------------------------------------------------
  free energy    TOTEN  =      -532.32388465 eV

  energy without entropy =     -532.32388465  energy(sigma->0) =     -532.32388465
  exchange ACFDT corr.  =         0.00000000  see jH, gK, PRB 81, 115126


--------------------------------------------------------------------------------------------------------




----------------------------------------- Iteration    1(  12)  ---------------------------------------


    POTLOK:  cpu time    3.6429: real time    3.6546
    SETDIJ:  cpu time    0.4805: real time    0.4819
    TRIAL :  cpu time  208.7806: real time  209.4216
    CORREC:  cpu time  169.5625: real time  170.0231
    CHARGE:  cpu time    2.4456: real time    2.4516
    --------------------------------------------
      LOOP:  cpu time  384.9123: real time  386.0344

 eigenvalue-minimisations  :     0
 total energy-change (2. order) :-0.2608453E-04  (-0.1177447E-04)
 number of electron     194.0000012 magnetization 
 augmentation part        4.6997772 magnetization 

 Free energy of the ion-electron system (eV)
  ---------------------------------------------------
  alpha Z        PSCENC =         6.09863443
  Ewald energy   TEWEN  =     28320.12409812
  -Hartree energ DENC   =    -34335.08048391
  -exchange      EXHF   =       524.39971132
  -V(xc)+E(xc)   XCENC  =       511.41580813
  PAW double counting   =     17987.54304681   -18001.96961212
  entropy T*S    EENTRO =        -0.00000000
  eigenvalues    EBANDS =     -2816.02673720
  atomic energy  EATOM  =      7271.17162370
  ---------------------------------------------------
  free energy    TOTEN  =      -532.32391073 eV

  energy without entropy =     -532.32391073  energy(sigma->0) =     -532.32391073
  exchange ACFDT corr.  =         0.00000000  see jH, gK, PRB 81, 115126


--------------------------------------------------------------------------------------------------------




----------------------------------------- Iteration    1(  13)  ---------------------------------------


    POTLOK:  cpu time    3.2952: real time    3.3036
    SETDIJ:  cpu time    0.4786: real time    0.4794
    TRIAL :  cpu time  191.7551: real time  192.2883
    CORREC:  cpu time  169.4797: real time  169.9402
    CHARGE:  cpu time    2.4788: real time    2.4856
    --------------------------------------------
      LOOP:  cpu time  367.4877: real time  368.4987

 eigenvalue-minimisations  :     0
 total energy-change (2. order) :-0.1160308E-04  (-0.5490933E-05)
 number of electron     194.0000012 magnetization 
 augmentation part        4.6997926 magnetization 

 Free energy of the ion-electron system (eV)
  ---------------------------------------------------
  alpha Z        PSCENC =         6.09863443
  Ewald energy   TEWEN  =     28320.12409812
  -Hartree energ DENC   =    -34335.00665464
  -exchange      EXHF   =       524.39821668
  -V(xc)+E(xc)   XCENC  =       511.41428170
  PAW double counting   =     17989.50673156   -18003.93289190
  entropy T*S    EENTRO =        -0.00000000
  eigenvalues    EBANDS =     -2816.09796198
  atomic energy  EATOM  =      7271.17162370
  ---------------------------------------------------
  free energy    TOTEN  =      -532.32392234 eV

  energy without entropy =     -532.32392234  energy(sigma->0) =     -532.32392234
  exchange ACFDT corr.  =         0.00000000  see jH, gK, PRB 81, 115126


--------------------------------------------------------------------------------------------------------




----------------------------------------- Iteration    1(  14)  ---------------------------------------


    POTLOK:  cpu time    3.2918: real time    3.2999
    SETDIJ:  cpu time    0.4784: real time    0.4797
    TRIAL :  cpu time  192.7056: real time  193.2448
    CORREC:  cpu time  169.7914: real time  170.2546
    CHARGE:  cpu time    2.4489: real time    2.4554
    --------------------------------------------
      LOOP:  cpu time  368.7164: real time  369.7350

 eigenvalue-minimisations  :     0
 total energy-change (2. order) :-0.5270304E-05  (-0.2420216E-05)
 number of electron     194.0000012 magnetization 
 augmentation part        4.6997747 magnetization 

 Free energy of the ion-electron system (eV)
  ---------------------------------------------------
  alpha Z        PSCENC =         6.09863443
  Ewald energy   TEWEN  =     28320.12409812
  -Hartree energ DENC   =    -34335.04194667
  -exchange      EXHF   =       524.39939743
  -V(xc)+E(xc)   XCENC  =       511.41530684
  PAW double counting   =     17990.11211901   -18004.53833160
  entropy T*S    EENTRO =        -0.00000000
  eigenvalues    EBANDS =     -2816.06482886
  atomic energy  EATOM  =      7271.17162370
  ---------------------------------------------------
  free energy    TOTEN  =      -532.32392761 eV

  energy without entropy =     -532.32392761  energy(sigma->0) =     -532.32392761
  exchange ACFDT corr.  =        -0.00000000  see jH, gK, PRB 81, 115126


--------------------------------------------------------------------------------------------------------




----------------------------------------- Iteration    1(  15)  ---------------------------------------


    POTLOK:  cpu time    3.3362: real time    3.3448
    SETDIJ:  cpu time    0.4789: real time    0.4801
    TRIAL :  cpu time  190.0885: real time  190.6132
    CORREC:  cpu time  170.9359: real time  171.4044
    CHARGE:  cpu time    2.4481: real time    2.4541
    --------------------------------------------
      LOOP:  cpu time  367.2880: real time  368.2982

 eigenvalue-minimisations  :     0
 total energy-change (2. order) :-0.2285135E-05  (-0.1124269E-05)
 number of electron     194.0000012 magnetization 
 augmentation part        4.6997511 magnetization 

 Free energy of the ion-electron system (eV)
  ---------------------------------------------------
  alpha Z        PSCENC =         6.09863443
  Ewald energy   TEWEN  =     28320.12409812
  -Hartree energ DENC   =    -34335.04231005
  -exchange      EXHF   =       524.39944581
  -V(xc)+E(xc)   XCENC  =       511.41532016
  PAW double counting   =     17989.84331144   -18004.26960390
  entropy T*S    EENTRO =        -0.00000000
  eigenvalues    EBANDS =     -2816.06444961
  atomic energy  EATOM  =      7271.17162370
  ---------------------------------------------------
  free energy    TOTEN  =      -532.32392989 eV

  energy without entropy =     -532.32392989  energy(sigma->0) =     -532.32392989
  exchange ACFDT corr.  =        -0.00000000  see jH, gK, PRB 81, 115126


--------------------------------------------------------------------------------------------------------




----------------------------------------- Iteration    1(  16)  ---------------------------------------


    POTLOK:  cpu time    3.2951: real time    3.3034
    SETDIJ:  cpu time    0.4784: real time    0.4797
    TRIAL :  cpu time  190.2270: real time  190.7513
    CORREC:  cpu time  171.1379: real time  171.6074
    CHARGE:  cpu time    2.4830: real time    2.4905
    --------------------------------------------
      LOOP:  cpu time  367.6219: real time  368.6341

 eigenvalue-minimisations  :     0
 total energy-change (2. order) :-0.1021893E-05  (-0.7224193E-06)
 number of electron     194.0000012 magnetization 
 augmentation part        4.6997445 magnetization 

 Free energy of the ion-electron system (eV)
  ---------------------------------------------------
  alpha Z        PSCENC =         6.09863443
  Ewald energy   TEWEN  =     28320.12409812
  -Hartree energ DENC   =    -34335.02038777
  -exchange      EXHF   =       524.39891549
  -V(xc)+E(xc)   XCENC  =       511.41480958
  PAW double counting   =     17989.32613445   -18003.75247738
  entropy T*S    EENTRO =        -0.00000000
  eigenvalues    EBANDS =     -2816.08528154
  atomic energy  EATOM  =      7271.17162370
  ---------------------------------------------------
  free energy    TOTEN  =      -532.32393091 eV

  energy without entropy =     -532.32393091  energy(sigma->0) =     -532.32393091
  exchange ACFDT corr.  =        -0.00000000  see jH, gK, PRB 81, 115126


--------------------------------------------------------------------------------------------------------




----------------------------------------- Iteration    1(  17)  ---------------------------------------


    POTLOK:  cpu time    3.2974: real time    3.3056
    SETDIJ:  cpu time    0.4783: real time    0.4792
    TRIAL :  cpu time  190.3070: real time  190.8312
    CORREC:  cpu time  170.4067: real time  170.8736
    CHARGE:  cpu time    2.5171: real time    2.5241
    --------------------------------------------
      LOOP:  cpu time  367.0068: real time  368.0153

 eigenvalue-minimisations  :     0
 total energy-change (2. order) :-0.5206584E-06  (-0.4350851E-06)
 number of electron     194.0000012 magnetization 
 augmentation part        4.6997468 magnetization 

 Free energy of the ion-electron system (eV)
  ---------------------------------------------------
  alpha Z        PSCENC =         6.09863443
  Ewald energy   TEWEN  =     28320.12409812
  -Hartree energ DENC   =    -34335.01934866
  -exchange      EXHF   =       524.39895688
  -V(xc)+E(xc)   XCENC  =       511.41482832
  PAW double counting   =     17988.79115109   -18003.21758247
  entropy T*S    EENTRO =        -0.00000000
  eigenvalues    EBANDS =     -2816.08629283
  atomic energy  EATOM  =      7271.17162370
  ---------------------------------------------------
  free energy    TOTEN  =      -532.32393143 eV

  energy without entropy =     -532.32393143  energy(sigma->0) =     -532.32393143
  exchange ACFDT corr.  =        -0.00000000  see jH, gK, PRB 81, 115126


--------------------------------------------------------------------------------------------------------


  average scaling for gradient   1.6056


 average (electrostatic) potential at core
  the test charge radii are     0.6991  0.5201  0.7089  0.7215  0.9698
  (the norm of the test charge is              1.0000)
       1 -53.7958       2 -53.8479       3 -53.8319       4 -53.8272       5 -53.8472
       6 -54.1113       7 -54.4994       8 -55.7109       9 -57.7904      10 -55.6603
      11 -56.2459      12 -56.7493      13 -56.7648      14 -56.2191      15 -55.6965
      16 -55.7278      17 -57.8873      18 -55.5300      19 -54.2630      20 -54.1212
      21 -53.9677      22 -53.9043      23 -53.8651      24 -53.8642      25 -53.8084
      26 -57.6821      27 -55.7787      28 -57.9049      29 -36.5534      30 -36.8601
      31 -36.6422      32 -36.5750      33 -36.4416      34 -36.5118      35 -36.5600
      36 -36.7079      37 -36.6725      38 -37.0070      39 -36.6566      40 -36.6136
      41 -36.5945      42 -36.8428      43 -36.5952      44 -37.3149      45 -37.2132
      46 -38.9319      47 -39.3839      48 -37.6209      49 -37.4680      50 -37.1338
      51 -37.0349      52 -36.8792      53 -36.9803      54 -36.9417      55 -36.6701
      56 -36.6522      57 -36.9362      58 -36.7828      59 -36.7059      60 -36.6791
      61 -36.4504      62 -36.7951      63 -36.6225      64 -36.6632      65 -69.6624
      66 -69.6252      67 -73.4756      68 -73.6541      69 -73.3691      70 -73.6615
      71 -93.6876      72 -93.5242
 
 
 
 E-fermi :  -6.4710     XC(G=0):  -0.2457     alpha+bet : -0.1734


 k-point     1 :       0.0000    0.0000    0.0000
  band No.  band energies     occupation 
      1     -29.7514      2.00000
      2     -29.7382      2.00000
      3     -29.0780      2.00000
      4     -29.0093      2.00000
      5     -26.9329      2.00000
      6     -26.9100      2.00000
      7     -26.0109      2.00000
      8     -25.5032      2.00000
      9     -23.3765      2.00000
     10     -23.2232      2.00000
     11     -22.9007      2.00000
     12     -22.7823      2.00000
     13     -22.4082      2.00000
     14     -22.1097      2.00000
     15     -21.9403      2.00000
     16     -21.0722      2.00000
     17     -20.9421      2.00000
     18     -20.7630      2.00000
     19     -19.8936      2.00000
     20     -19.7387      2.00000
     21     -18.7504      2.00000
     22     -18.5957      2.00000
     23     -18.4629      2.00000
     24     -18.1399      2.00000
     25     -17.8116      2.00000
     26     -17.5993      2.00000
     27     -17.4450      2.00000
     28     -16.9874      2.00000
     29     -16.6885      2.00000
     30     -16.3918      2.00000
     31     -16.2123      2.00000
     32     -15.9888      2.00000
     33     -15.8267      2.00000
     34     -15.6613      2.00000
     35     -15.2349      2.00000
     36     -15.0997      2.00000
     37     -14.0985      2.00000
     38     -13.9507      2.00000
     39     -13.8739      2.00000
     40     -13.8171      2.00000
     41     -13.7282      2.00000
     42     -13.6445      2.00000
     43     -13.5690      2.00000
     44     -13.4381      2.00000
     45     -13.2671      2.00000
     46     -13.2328      2.00000
     47     -13.0235      2.00000
     48     -12.9071      2.00000
     49     -12.7669      2.00000
     50     -12.5422      2.00000
     51     -12.3777      2.00000
     52     -12.3162      2.00000
     53     -12.2671      2.00000
     54     -12.1182      2.00000
     55     -12.0590      2.00000
     56     -11.9661      2.00000
     57     -11.8297      2.00000
     58     -11.7109      2.00000
     59     -11.5815      2.00000
     60     -11.4948      2.00000
     61     -11.4343      2.00000
     62     -11.2909      2.00000
     63     -11.1170      2.00000
     64     -11.0557      2.00000
     65     -10.9783      2.00000
     66     -10.8081      2.00000
     67     -10.7618      2.00000
     68     -10.6138      2.00000
     69     -10.5307      2.00000
     70     -10.3776      2.00000
     71     -10.2659      2.00000
     72     -10.1956      2.00000
     73      -9.8801      2.00000
     74      -9.7874      2.00000
     75      -9.7507      2.00000
     76      -9.5834      2.00000
     77      -9.2938      2.00000
     78      -9.2854      2.00000
     79      -9.1898      2.00000
     80      -9.1281      2.00000
     81      -9.0006      2.00000
     82      -8.8643      2.00000
     83      -8.8321      2.00000
     84      -8.8047      2.00000
     85      -8.7728      2.00000
     86      -8.7147      2.00000
     87      -8.4454      2.00000
     88      -8.3254      2.00000
     89      -8.2413      2.00000
     90      -8.1744      2.00000
     91      -8.1479      2.00000
     92      -8.1137      2.00000
     93      -7.8419      2.00000
     94      -7.7996      2.00000
     95      -7.6766      2.00000
     96      -7.6516      2.00000
     97      -6.7430      2.00000
     98      -2.9188      0.00000
     99      -1.9551      0.00000
    100      -1.8918      0.00000
    101      -0.9069      0.00000
    102      -0.4067      0.00000
    103      -0.2158      0.00000
    104      -0.0488      0.00000
    105      -0.0183      0.00000
    106       0.0502      0.00000
    107       0.0616      0.00000
    108       0.0890      0.00000
    109       0.1551      0.00000
    110       0.1710      0.00000
    111       0.2069      0.00000
    112       0.2561      0.00000
    113       0.2752      0.00000
    114       0.3117      0.00000
    115       0.3192      0.00000
    116       0.3261      0.00000
    117       0.3534      0.00000
    118       0.3616      0.00000
    119       0.3676      0.00000
    120       0.3912      0.00000
    121       0.4010      0.00000
    122       0.4241      0.00000
    123       0.4322      0.00000
    124       0.4828      0.00000
    125       0.5106      0.00000
    126       0.5298      0.00000
    127       0.5372      0.00000
    128       0.5574      0.00000
    129       0.5713      0.00000
    130       0.5875      0.00000
    131       0.6213      0.00000
    132       0.6801      0.00000
    133       0.7081      0.00000
    134       0.7790      0.00000
    135       0.8415      0.00000
    136       0.9886      0.00000


--------------------------------------------------------------------------------------------------------


 soft charge-density along one line, spin component           1
         0         1         2         3         4         5         6         7         8         9
 total charge-density along one line
 
 pseudopotential strength for first ion, spin component:           1
  9.909  13.174  -0.001  -0.002  -0.001   0.001   0.003   0.002
 13.174  17.514  -0.001  -0.002  -0.001   0.001   0.004   0.002
 -0.001  -0.001  -4.147  -0.000  -0.001   8.091   0.000   0.002
 -0.002  -0.002  -0.000  -4.145  -0.000   0.000   8.086   0.001
 -0.001  -0.001  -0.001  -0.000  -4.146   0.002   0.001   8.088
  0.001   0.001   8.091   0.000   0.002 -17.896  -0.000  -0.004
  0.003   0.004   0.000   8.086   0.001  -0.000 -17.888  -0.001
  0.002   0.002   0.002   0.001   8.088  -0.004  -0.001 -17.892
 total augmentation occupancy for first ion, spin component:           1
  8.532  -3.836  -0.012   0.022   0.046  -0.009   0.006   0.010
 -3.836   1.743   0.013  -0.002  -0.020   0.007  -0.004  -0.006
 -0.012   0.013   1.650  -0.015   0.017   0.146  -0.003   0.000
  0.022  -0.002  -0.015   1.587   0.018  -0.003   0.136   0.004
  0.046  -0.020   0.017   0.018   1.603   0.000   0.004   0.140
 -0.009   0.007   0.146  -0.003   0.000   0.013  -0.001  -0.000
  0.006  -0.004  -0.003   0.136   0.004  -0.001   0.012   0.001
  0.010  -0.006   0.000   0.004   0.140  -0.000   0.001   0.013


------------------------ aborting loop because EDIFF is reached ----------------------------------------


    FORLOC:  cpu time    2.0005: real time    2.0060
    FORHF :  cpu time  153.9783: real time  154.4082
    FORNL :  cpu time   28.2258: real time   28.3069
    FORCOR:  cpu time    4.3673: real time    4.3783
    OFIELD:  cpu time    0.0081: real time    0.0082

  Hirshfeld charges:
            ion         q(e)     
   ------------------------------
      1     C          -0.111
      2     C          -0.068
      3     C          -0.069
      4     C          -0.067
      5     C          -0.075
      6     C          -0.067
      7     C          -0.063
      8     C          -0.006
      9     C           0.170
     10     C          -0.045
     11     C          -0.036
     12     C          -0.008
     13     C          -0.005
     14     C          -0.030
     15     C          -0.045
     16     C          -0.050
     17     C           0.169
     18     C          -0.009
     19     C          -0.071
     20     C          -0.066
     21     C          -0.068
     22     C          -0.067
     23     C          -0.069
     24     C          -0.069
     25     C          -0.111
     26     C           0.165
     27     C          -0.046
     28     C           0.170
     29     H           0.034
     30     H           0.039
     31     H           0.036
     32     H           0.033
     33     H           0.033
     34     H           0.035
     35     H           0.035
     36     H           0.034
     37     H           0.039
     38     H           0.024
     39     H           0.034
     40     H           0.039
     41     H           0.035
     42     H           0.046
     43     H           0.036
     44     H           0.052
     45     H           0.050
     46     H           0.089
     47     H           0.086
     48     H           0.054
     49     H           0.050
     50     H           0.039
     51     H           0.042
     52     H           0.038
     53     H           0.039
     54     H           0.040
     55     H           0.035
     56     H           0.036
     57     H           0.040
     58     H           0.038
     59     H           0.035
     60     H           0.036
     61     H           0.032
     62     H           0.036
     63     H           0.038
     64     H           0.039
     65     N          -0.040
     66     N          -0.039
     67     O          -0.267
     68     O          -0.264
     69     O          -0.278
     70     O          -0.258
     71     S           0.169
     72     S           0.149

  Atomic reference data used in the T-S method for vdW correction:
            C6at              R0at           ALPHAat      REFSTATE
            (au)              (au)            (au)                
   ---------------------------------------------------------------
   C          46.600          3.590         12.000         0
   H           6.500          3.099          4.500         0
   N          24.200          3.345          7.400         0
   O          15.600          3.194          5.400         0
   S         134.000          3.855         19.600         0

  Tkatchenko/Scheffler method for vdW energy calculation
  ---------------------------------------------------------------------------------------------

  Parameters of vdW forcefield:
            C6ts              R0ts           ALPHAts        RELVOL
            (au)              (au)            (au)                
   ---------------------------------------------------------------
   C          27.719          3.293          9.255          0.771
   C          29.610          3.329          9.565          0.797
   C          29.822          3.333          9.600          0.800
   C          30.192          3.340          9.659          0.805
   C          31.425          3.362          9.854          0.821
   C          30.436          3.344          9.698          0.808
   C          30.380          3.343          9.689          0.807
   C          30.596          3.347          9.723          0.810
   C          32.825          3.387         10.071          0.839
   C          33.443          3.397         10.166          0.847
   C          31.319          3.360          9.838          0.820
   C          34.847          3.421         10.377          0.865
   C          35.025          3.424         10.403          0.867
   C          31.285          3.360          9.832          0.819
   C          33.718          3.402         10.207          0.851
   C          34.022          3.407         10.253          0.854
   C          32.787          3.386         10.066          0.839
   C          30.152          3.339          9.653          0.804
   C          30.320          3.342          9.680          0.807
   C          29.447          3.326          9.539          0.795
   C          29.576          3.328          9.560          0.797
   C          30.505          3.346          9.709          0.809
   C          29.646          3.330          9.571          0.798
   C          29.051          3.319          9.475          0.790
   C          27.532          3.289          9.224          0.769
   C          32.712          3.385         10.054          0.838
   C          33.843          3.404         10.226          0.852
   C          32.841          3.387         10.074          0.839
   H           2.480          2.639          2.780          0.618
   H           2.296          2.606          2.675          0.594
   H           2.630          2.665          2.862          0.636
   H           2.745          2.684          2.925          0.650
   H           2.393          2.624          2.730          0.607
   H           2.591          2.659          2.841          0.631
   H           2.511          2.645          2.797          0.621
   H           2.886          2.707          2.999          0.666
   H           2.537          2.649          2.811          0.625
   H           3.446          2.788          3.276          0.728
   H           3.116          2.742          3.116          0.692
   H           2.610          2.662          2.852          0.634
   H           2.734          2.683          2.918          0.649
   H           2.466          2.637          2.772          0.616
   H           2.780          2.690          2.943          0.654
   H           2.729          2.682          2.916          0.648
   H           2.790          2.692          2.948          0.655
   H           2.384          2.622          2.725          0.606
   H           2.400          2.625          2.735          0.608
   H           2.777          2.690          2.941          0.654
   H           2.796          2.693          2.951          0.656
   H           2.995          2.724          3.055          0.679
   H           2.751          2.685          2.928          0.651
   H           2.474          2.638          2.776          0.617
   H           2.579          2.657          2.834          0.630
   H           2.540          2.650          2.813          0.625
   H           2.555          2.653          2.821          0.627
   H           2.839          2.699          2.974          0.661
   H           2.898          2.709          3.005          0.668
   H           2.449          2.634          2.762          0.614
   H           2.647          2.668          2.872          0.638
   H           2.512          2.645          2.798          0.622
   H           2.387          2.623          2.727          0.606
   H           2.619          2.663          2.856          0.635
   H           2.249          2.597          2.647          0.588
   H           2.386          2.622          2.727          0.606
   N          18.113          3.187          6.402          0.865
   N          18.001          3.184          6.382          0.862
   O          14.179          3.143          5.148          0.953
   O          14.130          3.141          5.139          0.952
   O          14.451          3.153          5.197          0.962
   O          14.065          3.139          5.127          0.950
   S         105.066          3.702         17.355          0.885
   S         106.922          3.713         17.508          0.893

  IVDW =   2
  VDW_RADIUS =    50.000 A
  VDW_IDAMPF =  0
  VDW_S6 =     1.000
  VDW_SR =     0.940
  VDW_D =    20.000
  LVDW_ONECELL = F F F
  LVDW_SAMETYPE T T T T T
  LVDW_EWALD = F

  Number of pair interactions contributing to vdW energy:   53777
  Edisp (eV):   -1.19748
    FORVDW:  cpu time   17.6278: real time   17.6693

 VOLUME and BASIS-vectors are now :
 -----------------------------------------------------------------------------
  energy-cutoff  :      500.00
  volume of cell :    27000.00
      direct lattice vectors                 reciprocal lattice vectors
    30.000000000  0.000000000  0.000000000     0.033333333  0.000000000  0.000000000
     0.000000000 30.000000000  0.000000000     0.000000000  0.033333333  0.000000000
     0.000000000  0.000000000 30.000000000     0.000000000  0.000000000  0.033333333

  length of vectors
    30.000000000 30.000000000 30.000000000     0.033333333  0.033333333  0.033333333


 FORCES acting on ions:
    Electron-Ion                     Ewald-Force                    Non-Local-Force
 -----------------------------------------------------------------------------------------------
   0.558E+02 -.239E+03 0.620E+02   -.563E+02 0.239E+03 -.622E+02   -.738E+00 -.105E+00 -.120E+01
   -.933E+02 -.155E+03 -.521E+02   0.941E+02 0.155E+03 0.528E+02   0.877E+00 0.852E+00 -.236E+00
   0.487E+02 -.927E+02 -.216E+03   -.487E+02 0.924E+02 0.216E+03   0.396E+00 0.264E+00 0.695E+00
   0.217E+03 -.720E+02 -.907E+02   -.217E+03 0.714E+02 0.905E+02   0.145E+00 0.272E+00 -.369E-02
   0.537E+02 -.633E+02 -.270E+00   -.538E+02 0.640E+02 0.576E+00   -.258E+00 0.932E+00 -.575E+00
   0.253E+03 -.284E+02 0.581E+02   -.254E+03 0.291E+02 -.570E+02   -.127E+01 0.176E+00 -.411E+00
   0.178E+03 0.149E+01 0.202E+03   -.179E+03 0.108E+01 -.203E+03   -.728E+00 -.465E+00 -.270E+01
   0.191E+03 0.174E+03 0.149E+03   -.196E+03 -.177E+03 -.153E+03   0.492E+01 -.184E+01 0.351E+01
   0.403E+02 0.116E+03 -.106E+03   -.392E+02 -.117E+03 0.109E+03   -.436E+01 -.371E+00 -.129E+01
   0.396E+02 0.970E+02 -.189E+03   -.411E+02 -.978E+02 0.193E+03   -.113E+01 -.139E+00 -.142E+00
   -.661E+01 0.924E+02 -.316E+03   0.409E+01 -.931E+02 0.318E+03   0.270E+01 0.867E+00 -.341E+01
   -.683E+02 0.374E+02 -.336E+02   0.672E+02 -.375E+02 0.333E+02   0.106E+01 -.259E+00 0.253E+01
   0.297E+02 0.301E+02 0.521E+02   -.277E+02 -.298E+02 -.520E+02   -.613E+00 0.303E+00 -.257E+01
   -.140E+02 -.249E+02 0.318E+03   0.156E+02 0.251E+02 -.318E+03   -.397E+01 -.122E+01 0.475E+01
   -.597E+02 -.721E+01 0.208E+03   0.616E+02 0.812E+01 -.212E+03   0.172E+01 0.361E+00 -.860E+00
   0.143E+02 0.367E+02 -.604E+01   -.162E+02 -.374E+02 0.953E+01   -.230E+00 -.296E+00 0.188E+01
   -.200E+02 0.474E+02 -.364E+02   0.172E+02 -.478E+02 0.361E+02   0.323E+01 0.218E-01 0.301E+01
   -.189E+03 0.137E+03 -.608E+02   0.196E+03 -.137E+03 0.646E+02   -.600E+01 -.865E+00 -.288E+01
   -.337E+02 -.780E+02 -.512E+02   0.340E+02 0.790E+02 0.516E+02   -.178E-01 -.122E+01 0.599E-01
   -.153E+03 0.990E+02 -.974E+02   0.153E+03 -.986E+02 0.977E+02   -.310E+00 -.417E+00 0.178E+00
   -.961E+02 -.183E+02 -.179E+03   0.964E+02 0.185E+02 0.179E+03   0.105E+01 -.767E+00 0.350E-01
   -.496E+02 -.410E+02 0.458E+02   0.490E+02 0.411E+02 -.454E+02   -.618E+00 0.217E+00 0.651E+00
   -.581E+02 -.132E+03 -.145E+03   0.580E+02 0.132E+03 0.144E+03   0.252E+00 0.986E-01 -.357E+00
   -.458E+01 -.207E+03 0.137E+02   0.418E+01 0.207E+03 -.125E+02   0.319E+00 0.449E+00 0.251E+00
   -.147E+03 -.817E+02 0.129E+03   0.148E+03 0.818E+02 -.129E+03   0.392E+00 0.819E-01 -.560E+00
   -.510E+02 0.177E+02 0.142E+03   0.498E+02 -.175E+02 -.146E+03   0.450E+01 0.390E+00 0.159E+01
   -.366E+02 0.474E+02 0.302E+02   0.374E+02 -.468E+02 -.329E+02   -.283E+00 0.235E+00 -.195E+01
   -.598E+01 0.613E+02 0.691E+02   0.850E+01 -.610E+02 -.692E+02   -.328E+01 0.121E+00 -.320E+01
   0.114E+02 -.338E+02 0.736E+02   -.116E+02 0.329E+02 -.776E+02   0.115E+00 0.139E+01 0.468E+01
   -.185E+02 -.930E+02 0.127E+01   0.209E+02 0.982E+02 -.100E+01   -.250E+01 -.487E+01 -.467E+00
   0.720E+02 -.566E+02 -.795E+01   -.758E+02 0.572E+02 0.912E+01   0.474E+01 -.349E+00 -.125E+01
   -.506E+02 -.108E+02 0.313E+02   0.533E+02 0.811E+01 -.340E+02   -.289E+01 0.278E+01 0.319E+01
   -.515E+02 -.607E+02 -.506E+02   0.545E+02 0.626E+02 0.533E+02   -.338E+01 -.238E+01 -.282E+01
   -.232E+02 0.156E+02 -.797E+02   0.256E+02 -.187E+02 0.824E+02   -.280E+01 0.322E+01 -.276E+01
   0.431E+02 -.572E+02 -.788E+02   -.453E+02 0.602E+02 0.822E+02   0.235E+01 -.316E+01 -.332E+01
   0.802E+02 -.598E+02 0.202E+02   -.831E+02 0.631E+02 -.227E+02   0.281E+01 -.357E+01 0.249E+01
   0.806E+02 0.176E+02 -.633E+02   -.841E+02 -.205E+02 0.665E+02   0.334E+01 0.271E+01 -.318E+01
   -.141E+02 0.121E+02 -.456E+02   0.182E+02 -.160E+02 0.489E+02   -.350E+01 0.349E+01 -.288E+01
   -.187E+02 -.555E+02 0.565E+02   0.213E+02 0.579E+02 -.593E+02   -.254E+01 -.302E+01 0.310E+01
   0.803E+02 -.497E+02 0.482E+02   -.823E+02 0.521E+02 -.500E+02   0.270E+01 -.338E+01 0.195E+01
   0.960E+02 0.310E+02 -.304E+02   -.987E+02 -.331E+02 0.330E+02   0.343E+01 0.219E+01 -.275E+01
   0.839E+02 0.261E+02 0.672E+02   -.862E+02 -.273E+02 -.688E+02   0.355E+01 0.131E+01 0.244E+01
   0.657E+01 -.389E+02 0.905E+02   -.493E+01 0.406E+02 -.925E+02   -.193E+01 -.237E+01 0.332E+01
   0.249E+02 0.669E+02 0.886E+02   -.240E+02 -.686E+02 -.917E+02   -.973E+00 0.242E+01 0.413E+01
   0.807E+02 0.802E+02 -.573E+01   -.825E+02 -.823E+02 0.751E+01   0.306E+01 0.294E+01 -.204E+01
   0.163E+02 0.278E+02 -.104E+03   -.177E+02 -.287E+02 0.109E+03   0.181E+01 0.101E+01 -.508E+01
   -.169E+02 -.132E+02 0.108E+03   0.187E+02 0.145E+02 -.115E+03   -.142E+01 -.110E+01 0.609E+01
   -.876E+02 0.535E+02 0.346E+02   0.915E+02 -.553E+02 -.380E+02   -.423E+01 0.172E+01 0.308E+01
   -.337E+02 0.725E+02 -.698E+02   0.333E+02 -.755E+02 0.735E+02   0.101E+00 0.316E+01 -.424E+01
   -.123E+02 -.567E+02 0.519E+02   0.125E+02 0.603E+02 -.564E+02   -.157E+00 -.332E+01 0.443E+01
   0.370E+02 -.406E+02 -.648E+02   -.405E+02 0.422E+02 0.679E+02   0.351E+01 -.178E+01 -.345E+01
   -.286E+02 0.545E+02 -.785E+02   0.284E+02 -.578E+02 0.824E+02   0.127E+00 0.310E+01 -.416E+01
   -.837E+02 0.420E+02 0.264E+02   0.876E+02 -.440E+02 -.297E+02   -.387E+01 0.182E+01 0.316E+01
   0.238E+02 -.266E+02 -.868E+02   -.273E+02 0.284E+02 0.910E+02   0.318E+01 -.166E+01 -.409E+01
   -.818E+02 0.114E+02 -.564E+02   0.861E+02 -.118E+02 0.585E+02   -.467E+01 0.590E+00 -.193E+01
   0.466E+02 -.328E+02 0.347E+02   -.504E+02 0.334E+02 -.369E+02   0.442E+01 -.602E+00 0.221E+01
   -.638E+02 0.174E+02 0.518E+02   0.674E+02 -.191E+02 -.556E+02   -.376E+01 0.133E+01 0.366E+01
   0.316E+02 -.516E+02 -.693E+02   -.352E+02 0.533E+02 0.732E+02   0.342E+01 -.185E+01 -.373E+01
   -.760E+02 -.150E+02 -.553E+02   0.805E+02 0.145E+02 0.577E+02   -.459E+01 0.763E+00 -.231E+01
   0.540E+02 -.493E+02 0.344E+02   -.586E+02 0.500E+02 -.365E+02   0.468E+01 -.563E+00 0.232E+01
   -.216E+02 -.880E+02 -.256E+02   0.226E+02 0.921E+02 0.273E+02   -.142E+01 -.442E+01 -.200E+01
   -.738E+02 0.233E+02 0.479E+00   0.769E+02 -.267E+02 0.123E+01   -.307E+01 0.368E+01 -.197E+01
   -.558E+02 -.614E+02 0.304E+02   0.585E+02 0.647E+02 -.318E+02   -.296E+01 -.393E+01 0.115E+01
   0.116E+01 0.380E+00 0.755E+02   -.287E+01 -.203E+01 -.794E+02   0.238E+01 0.180E+01 0.412E+01
   0.152E+03 0.148E+03 0.832E+02   -.154E+03 -.148E+03 -.840E+02   0.507E+01 0.105E+01 0.247E+01
   -.163E+03 0.719E+02 -.304E+02   0.166E+03 -.717E+02 0.323E+02   -.517E+01 -.594E+00 -.298E+01
   0.342E+03 0.239E+03 -.384E+03   -.380E+03 -.249E+03 0.419E+03   0.348E+02 0.922E+01 -.313E+02
   -.362E+02 0.125E+03 -.452E+03   0.273E+02 -.134E+03 0.503E+03   0.802E+01 0.793E+01 -.460E+02
   -.345E+03 -.380E+02 0.410E+03   0.384E+03 0.480E+02 -.444E+03   -.354E+02 -.909E+01 0.302E+02
   0.121E+02 0.112E+02 0.502E+03   -.438E+01 -.235E+01 -.553E+03   -.681E+01 -.805E+01 0.461E+02
   -.168E+03 0.850E+02 -.345E+03   0.175E+03 -.850E+02 0.351E+03   -.617E+01 0.822E-01 -.558E+01
   0.117E+03 0.368E+01 0.369E+03   -.125E+03 -.378E+01 -.375E+03   0.806E+01 0.248E+00 0.513E+01
 -----------------------------------------------------------------------------------------------
   0.761E+00 0.257E+01 0.452E+01   0.625E-12 0.719E-13 -.341E-12   -.803E+00 -.246E+01 -.413E+01
 
 
 POSITION                                       TOTAL-FORCE (eV/Angst)
 -----------------------------------------------------------------------------------
      9.17583     18.47481     15.14885        -1.252213     -0.019877     -1.530405
      9.90090     17.42798     15.93807         1.734868      0.433856      0.364430
      8.96757     16.60091     16.77257         0.446930      0.044785      1.371374
      7.94379     15.88564     15.94685         0.069129     -0.339755     -0.180924
      8.65237     14.95022     14.96457        -0.462515      1.665011     -0.303771
      7.67382     14.20886     14.13127        -2.228478      0.825806      0.720574
      8.26104     13.29695     13.13411        -1.675132      2.069717     -4.526711
      9.02485     12.11675     13.47472        -0.655521     -4.472468     -0.156438
     10.45688     11.96565     15.64181        -3.674566     -0.731619      1.585883
     11.89910     12.09937     15.95898        -2.741727     -0.870284      3.364706
     12.63657     12.01396     17.12725         0.368760      0.259929     -1.364907
     13.90726     12.52077     14.86200        -0.040743     -0.369530      2.398234
     14.86929     12.79483     13.86077         1.377204      0.576633     -2.608563
     16.20261     13.31694     11.52886        -2.617445     -1.072202      4.937127
     16.88365     13.21820     12.74741         3.709376      1.281687     -5.327376
     16.25753     12.96981     13.86388        -2.106833     -1.077714      5.419291
     17.25634     12.92747     14.97479         0.615833     -0.392214      3.039942
     19.82419     13.22505     15.14013        -0.216485     -0.337641      0.823486
     20.14887     14.62005     15.62579         0.241961     -0.353917      0.527503
     21.49556     14.57147     16.34194        -0.241443      0.022015      0.515748
     21.89827     15.93170     16.86363         1.399118     -0.621256     -0.507480
     22.02375     16.95699     15.75130        -1.230303      0.310931      1.079744
     22.43043     18.26904     16.38505         0.240438      0.533140     -0.991433
     22.55230     19.29553     15.25124        -0.051542      0.933660      1.471259
     23.58200     18.86418     14.25396         0.742016      0.186855     -1.171377
     18.34060     13.35541     13.05595         3.576392      0.705214     -1.645005
     12.54851     12.35268     14.83897         0.481684      0.781458     -4.775173
     11.55146     12.39688     13.72682        -0.982524      0.480334     -3.532182
      9.14968     18.15974     14.06528        -0.057887      0.662164      0.888169
      9.66910     19.44051     15.23821        -0.211170      0.130030     -0.209064
      8.09297     18.55529     15.45139         1.075004      0.222569     -0.139639
     10.51730     16.81148     15.24464        -0.360044      0.246624      0.588752
     10.65091     17.95594     16.58394        -0.544015     -0.614796     -0.239132
      9.57631     15.88425     17.37379        -0.523738      0.291711     -0.218781
      8.45883     17.28476     17.48420         0.269755     -0.339831     -0.150241
      7.34703     16.64527     15.40360         0.069121     -0.541927      0.104205
      7.25965     15.32568     16.59746         0.021226      0.017777     -0.148753
      9.31516     14.29671     15.49783         0.487106     -0.264607      0.313087
      9.23031     15.61445     14.27130        -0.066807     -0.798816      0.492484
      7.03557     15.01560     13.63326         0.745031     -1.111534      0.171057
      6.90190     13.68534     14.76843         0.888997      0.160007     -0.352883
      7.35248     12.91748     12.51437         1.446159      0.179396      0.908836
      8.78563     13.91616     12.29948        -0.367151     -0.803258      1.500152
      9.26910     11.55327     12.50588        -0.108674      0.839624      1.272560
      8.28938     11.39107     14.00101         1.400416      0.990097     -0.375622
     12.29210     11.81271     18.15957         0.514226      0.187646     -0.857753
     16.43540     13.49900     10.52117         0.341371      0.175268     -0.933780
     20.65531     12.87617     14.50697        -0.616858     -0.001581     -0.170727
     19.78499     12.54860     16.02721        -0.243879      0.290559     -0.719041
     20.18085     15.27717     14.75733        -0.033910      0.137336      0.066802
     19.39689     14.99155     16.35163         0.125004     -0.187701     -0.527451
     21.45174     13.89619     17.21943        -0.124193     -0.030363     -0.521824
     22.28705     14.19488     15.67831        -0.185952     -0.010216      0.032132
     21.24678     16.26823     17.67246        -0.129139      0.095270     -0.087179
     22.92019     15.80695     17.29141        -0.574983      0.197094      0.085509
     21.02936     17.09128     15.24556         0.918961     -0.064158      0.197471
     22.78389     16.67592     15.01452        -0.338230     -0.267484      0.058904
     21.72578     18.62985     17.14150        -0.032885     -0.254757     -0.006278
     23.41202     18.11043     16.87188        -0.308813      0.315126     -0.071630
     21.56718     19.41130     14.76469         0.323034      0.166613      0.279054
     22.86175     20.27637     15.69110        -0.488351     -0.520453     -0.349653
     24.23195     18.07505     14.67960        -0.152488      0.390567     -0.353064
     24.23462     19.73354     13.98868        -0.472556     -0.815453     -0.177919
     23.06999     18.46432     13.34577         0.771691      0.242719      0.470961
     10.23532     12.15225     14.24004         3.802130      0.605357      2.008335
     18.55573     13.17248     14.44089        -2.857209     -0.532770     -1.435733
      9.53726     11.72545     16.45121         2.017434      0.537933     -1.716713
     17.03900     12.71608     16.18784         0.411231      0.442060     -2.625905
     19.28338     13.59454     12.26500        -2.396977     -0.544027      1.650765
     11.74305     12.60777     12.50538        -0.168818     -0.488454      2.941134
     14.26865     12.29714     16.62292         0.071751      0.041858     -0.168398
     14.50312     13.01372     12.11233         0.838839      0.174224     -0.470765
 -----------------------------------------------------------------------------------
    total drift:                               -0.073647     -0.033059      0.049928


--------------------------------------------------------------------------------------------------------



  FREE ENERGIE OF THE ION-ELECTRON SYSTEM (eV)
  ---------------------------------------------------
  free  energy   TOTEN  =      -533.52141450 eV

  energy  without entropy=     -533.52141450  energy(sigma->0) =     -533.52141450
 


--------------------------------------------------------------------------------------------------------


    POTLOK:  cpu time    3.7994: real time    3.8093


--------------------------------------------------------------------------------------------------------


 stress matrix after NEB project (eV)
     -0.66425      0.05999     -0.11342
      0.05999     -0.24071      0.02917
     -0.11342      0.02917     -0.24099
  FORCES: max atom, RMS     6.616882    2.353384
  FORCE total and by dimension   19.969125    5.419291
  Stress total and by dimension    0.769331    0.664245
     LOOP+:  cpu time 6948.1978: real time 6969.1284
    4ORBIT:  cpu time    0.0000: real time    0.0000

 total amount of memory used by VASP on root node  2386237. kBytes
========================================================================

   base      :      30000. kBytes
   nonl-proj :     504430. kBytes
   fftplans  :     338850. kBytes
   grid      :     952390. kBytes
   one-center:        110. kBytes
   HF        :         23. kBytes
   nonlr-proj:        793. kBytes
   wavefun   :     559641. kBytes
 
  
  
 General timing and accounting informations for this job:
 ========================================================
  
                  Total CPU time used (sec):     6974.213
                            User time (sec):     6933.462
                          System time (sec):       40.751
                         Elapsed time (sec):     6998.669
  
                   Maximum memory used (kb):     3190528.
                   Average memory used (kb):           0.
  
                          Minor page faults:       628599
                          Major page faults:          110
                 Voluntary context switches:         2548
