Molecule_POSCAR_07
1.0
30.000000 0.000000 0.000000
0.000000 30.000000 0.000000
0.000000 0.000000 30.000000
C H O
44 26 2
Cartesian
19.214646 15.360622 11.297767
17.735828 15.234389 11.575238
17.277780 15.332265 12.848654
18.276249 15.558214 13.876354
19.408352 14.645531 13.629986
19.865330 14.545827 12.395614
19.724805 14.038149 14.904202
20.636670 13.150535 15.301955
20.765302 12.676722 16.675747
19.811093 13.226020 17.630858
18.898773 14.104953 17.253254
18.788539 14.571341 15.883876
17.939453 15.457284 15.275500
16.902337 16.154758 16.065376
15.216322 14.622661 16.457217
14.624780 13.420734 17.021387
13.305294 13.249813 17.344229
12.802197 12.068664 17.857525
13.641425 10.981165 18.071017
14.971116 11.149217 17.747801
15.467263 12.329293 17.236062
14.814036 15.331264 15.420338
13.841351 15.495284 14.348392
12.537845 14.924886 14.503608
12.179743 13.645603 14.240682
12.910473 12.468900 13.747352
12.232895 11.353229 13.588728
10.799511 11.218228 13.875950
10.121349 12.285790 14.330772
10.765585 13.492854 14.527507
10.241457 14.730850 14.974217
8.988752 15.179646 15.373408
8.750167 16.475741 15.769386
9.808949 17.359416 15.766016
11.060777 16.919904 15.369656
11.323842 15.632083 14.970250
15.115309 17.406066 14.489073
15.564416 18.747656 14.142877
16.871955 19.086067 13.933188
17.253466 20.388584 13.597010
16.324288 21.380642 13.464655
14.986835 21.067900 13.671629
14.627879 19.786080 14.000507
15.729673 16.506328 15.244887
19.475124 14.820071 10.361783
17.077369 15.068283 10.751056
16.217106 15.225478 12.934331
20.678361 13.892453 12.212725
21.294529 12.783869 14.549636
21.036628 11.630452 16.804457
19.844592 12.913401 18.670777
18.235583 14.472070 18.003340
12.616373 14.067285 17.207614
11.731553 11.979354 18.100651
13.231404 10.062500 18.473838
15.631399 10.309255 17.908654
16.512246 12.454188 16.984902
13.960781 12.578461 13.543719
12.819281 10.495572 13.217218
10.322178 10.277708 13.717256
9.060861 12.124115 14.523423
8.167348 14.463246 15.368248
7.774909 16.840818 16.084539
9.684921 18.390973 16.066429
11.908146 17.622907 15.366563
17.622437 18.305360 14.038511
18.290072 20.606962 13.442425
16.603606 22.404164 13.201683
14.240083 21.865939 13.564677
13.576321 19.513959 14.169135
16.357222 15.220832 16.978092
13.905461 16.849166 14.054613
