Molecule_POSCAR_03                      
   1.00000000000000     
    30.0000000000000000    0.0000000000000000    0.0000000000000000
     0.0000000000000000   30.0000000000000000    0.0000000000000000
     0.0000000000000000    0.0000000000000000   30.0000000000000000
   C    F    H    N    Si
    36     6    72     4     4
Direct
  0.3590396999999967  0.5051644999999994  0.4599061666666699
  0.3834147333333320  0.5447655333333330  0.4778832333333298
  0.3903704000000019  0.5371241666666648  0.5276777999999993
  0.3536256000000009  0.5865962666666675  0.4757223333333300
  0.5116686333333362  0.5153781666666646  0.4881781666666640
  0.5189582000000001  0.5560739333333302  0.5134884000000000
  0.5341409999999982  0.6545174999999972  0.5302497666666639
  0.5027396333333343  0.6415926000000027  0.5687774666666670
  0.5125359000000032  0.6926184000000006  0.5068987000000007
  0.5743932333333319  0.6754173666666645  0.5554642333333319
  0.5629614666666640  0.6161090666666666  0.4398131333333311
  0.5772654666666668  0.5742892999999967  0.4143730666666698
  0.5325036666666634  0.6427309666666687  0.4115638666666683
  0.6075582333333358  0.6433026333333345  0.4389127999999971
  0.4893760666666651  0.5216741999999996  0.5793604333333349
  0.4740300666666641  0.5256185000000002  0.6269835000000015
  0.5352702666666644  0.4102431999999965  0.4461663333333306
  0.5067605333333347  0.3942975666666655  0.4079061999999993
  0.5724756333333332  0.3744517000000016  0.4481201333333331
  0.5595490999999981  0.4505591333333356  0.4287825333333330
  0.4505075000000005  0.3940260666666688  0.4999247333333301
  0.4227890000000016  0.4064119000000019  0.4602646000000021
  0.4540226333333308  0.3427207666666661  0.4977346000000011
  0.4230948000000012  0.4049146999999991  0.5403175000000005
  0.5909241333333313  0.4306369999999973  0.5776607333333317
  0.5726824999999991  0.4538735333333364  0.6175410000000028
  0.6341135999999992  0.4075638333333345  0.5935123666666655
  0.6077482666666683  0.4639238999999975  0.5440027333333362
  0.5276844666666634  0.3509765333333306  0.5929372333333305
  0.5641487999999981  0.3466422666666631  0.6294017000000025
  0.5236607666666657  0.3025334000000015  0.5762304000000000
  0.4869757333333311  0.3605639000000025  0.6178484666666648
  0.4236275333333310  0.5716917999999964  0.3901133999999971
  0.3796904666666663  0.5540233666666694  0.3739285333333342
  0.4219940333333341  0.6216920999999971  0.3834202000000033
  0.4581598333333332  0.5493052666666642  0.3602643333333333
  0.4540289999999985  0.6059685999999971  0.4732138999999975
  0.6041547666666673  0.5938674333333367  0.5197009999999977
  0.4403993666666679  0.5579941000000019  0.6270146333333315
  0.4583351333333354  0.4850498333333348  0.6399776000000017
  0.5073768666666680  0.5422368999999989  0.6540113666666656
  0.5892173000000014  0.3537606333333301  0.5272051333333323
  0.3558452999999986  0.4777953666666690  0.4856608333333341
  0.3224905000000007  0.5143995999999973  0.4551039999999986
  0.3729595666666654  0.4898721333333356  0.4303622333333337
  0.3567579666666632  0.5424380333333332  0.5440065333333308
  0.4114270333333323  0.5634828333333317  0.5417031333333355
  0.3991822999999997  0.5029222666666655  0.5350316666666686
  0.3188467333333307  0.5767919999999975  0.4667315000000016
  0.3509559999999965  0.6034359333333299  0.5084652333333324
  0.3674708666666646  0.6119252000000017  0.4526922000000013
  0.5202348999999984  0.6236977333333300  0.5952101999999968
  0.4716236000000009  0.6277808999999976  0.5569505333333353
  0.4938159333333303  0.6749375333333347  0.5839926333333310
  0.5336190666666667  0.7096828000000031  0.4817910666666663
  0.4776569333333356  0.6872502666666662  0.4972140666666647
  0.5094509666666696  0.7194292000000004  0.5340008666666662
  0.5602403999999979  0.6984034333333327  0.5807103666666649
  0.5936753333333300  0.6485515666666686  0.5719907000000006
  0.5940560000000019  0.6950177333333301  0.5320389333333324
  0.5743961000000013  0.5824690000000032  0.3784386000000026
  0.6124460999999997  0.5647172999999981  0.4223293333333302
  0.5562817333333356  0.5459517333333324  0.4214295000000021
  0.5062197999999967  0.6592291666666696  0.4293273333333332
  0.5510621666666680  0.6670993333333328  0.3889165000000006
  0.5174945666666702  0.6196732666666662  0.3856955666666693
  0.6002381999999997  0.6780963000000000  0.4487337333333343
  0.6195925333333321  0.6445173999999980  0.4038483666666650
  0.6322779333333344  0.6264250999999987  0.4594724999999968
  0.4947418666666650  0.3605064333333345  0.4109021666666663
  0.5320421666666633  0.3910480666666700  0.3794640333333348
  0.4842638333333298  0.4196809666666681  0.3937792666666695
  0.6027101999999971  0.3882719666666645  0.4621260666666700
  0.5604207333333306  0.3423900000000017  0.4587860999999975
  0.5820572666666664  0.3687728333333311  0.4118055666666649
  0.5878155333333339  0.4413386000000017  0.4063374999999994
  0.5375758666666641  0.4711175999999995  0.4062198666666674
  0.5691487333333356  0.4709015666666687  0.4566143999999994
  0.3858468333333320  0.4069540666666640  0.4690356999999992
  0.4291742999999997  0.4385372666666640  0.4460037333333347
  0.4222070666666653  0.3797698333333344  0.4335201999999967
  0.4377451333333369  0.3270552666666688  0.5270019333333309
  0.4883087666666697  0.3324066666666639  0.4919393333333346
  0.4349096999999986  0.3289739000000012  0.4686748000000023
  0.4067533666666634  0.3736017333333308  0.5541421333333361
  0.4384173666666697  0.4249222666666697  0.5657409333333305
  0.3917808333333355  0.4244250666666645  0.5314103333333335
  0.5749152666666646  0.4909241666666659  0.6117796333333345
  0.5386198333333354  0.4469121666666638  0.6265795666666634
  0.5933162999999979  0.4492515333333316  0.6486992999999970
  0.6347913999999975  0.4015457666666649  0.6292549333333355
  0.6638356333333348  0.4305666666666639  0.5885880000000014
  0.6416127333333321  0.3794194000000033  0.5715358333333356
  0.6400931666666665  0.4775193666666695  0.5584232666666651
  0.5869444333333362  0.4933546000000035  0.5404431666666696
  0.6178980333333328  0.4462733000000014  0.5141469666666652
  0.5503718000000006  0.3183223333333345  0.6505133333333362
  0.5951826000000011  0.3338260000000020  0.6165833333333310
  0.5639632999999975  0.3751183666666691  0.6513844333333338
  0.4881403333333338  0.2913172666666668  0.5767523999999966
  0.5408116333333339  0.2783493666666672  0.5981405666666646
  0.5395382000000026  0.2990385000000018  0.5431164666666675
  0.4887902666666690  0.3436877333333328  0.6518765000000002
  0.4585916999999995  0.3406900000000022  0.6029178333333363
  0.4788142666666673  0.3945818666666696  0.6262831666666671
  0.3710854666666634  0.5750439333333333  0.3435543666666661
  0.3515043333333310  0.5582501000000022  0.3959609999999998
  0.3833389666666633  0.5201289333333321  0.3585548666666654
  0.3880379000000005  0.6338993333333320  0.3741290666666686
  0.4445831999999967  0.6323683999999972  0.3556894333333318
  0.4307854999999989  0.6403233333333347  0.4139720666666662
  0.4469179666666676  0.5160736666666637  0.3493447000000032
  0.4616017999999968  0.5711280666666667  0.3306869999999975
  0.4882674999999992  0.5455819666666670  0.3798105333333339
  0.4753861666666666  0.5167677000000026  0.4567316333333338
  0.5071720999999982  0.5569823000000014  0.5549382000000023
  0.4866933666666640  0.4844214666666673  0.5581674333333311
  0.5009624333333349  0.4773898333333335  0.5148087333333322
  0.4376429666666652  0.5568809333333320  0.4489166666666691
  0.5506969999999995  0.6062621000000021  0.4975833333333313
  0.5075963666666681  0.4189705666666654  0.4999119666666658
  0.5512838666666653  0.3892591666666689  0.5524137333333314
 
  0.00000000E+00  0.00000000E+00  0.00000000E+00
  0.00000000E+00  0.00000000E+00  0.00000000E+00
  0.00000000E+00  0.00000000E+00  0.00000000E+00
  0.00000000E+00  0.00000000E+00  0.00000000E+00
  0.00000000E+00  0.00000000E+00  0.00000000E+00
  0.00000000E+00  0.00000000E+00  0.00000000E+00
  0.00000000E+00  0.00000000E+00  0.00000000E+00
  0.00000000E+00  0.00000000E+00  0.00000000E+00
  0.00000000E+00  0.00000000E+00  0.00000000E+00
  0.00000000E+00  0.00000000E+00  0.00000000E+00
  0.00000000E+00  0.00000000E+00  0.00000000E+00
  0.00000000E+00  0.00000000E+00  0.00000000E+00
  0.00000000E+00  0.00000000E+00  0.00000000E+00
  0.00000000E+00  0.00000000E+00  0.00000000E+00
  0.00000000E+00  0.00000000E+00  0.00000000E+00
  0.00000000E+00  0.00000000E+00  0.00000000E+00
  0.00000000E+00  0.00000000E+00  0.00000000E+00
  0.00000000E+00  0.00000000E+00  0.00000000E+00
  0.00000000E+00  0.00000000E+00  0.00000000E+00
  0.00000000E+00  0.00000000E+00  0.00000000E+00
  0.00000000E+00  0.00000000E+00  0.00000000E+00
  0.00000000E+00  0.00000000E+00  0.00000000E+00
  0.00000000E+00  0.00000000E+00  0.00000000E+00
  0.00000000E+00  0.00000000E+00  0.00000000E+00
  0.00000000E+00  0.00000000E+00  0.00000000E+00
  0.00000000E+00  0.00000000E+00  0.00000000E+00
  0.00000000E+00  0.00000000E+00  0.00000000E+00
  0.00000000E+00  0.00000000E+00  0.00000000E+00
  0.00000000E+00  0.00000000E+00  0.00000000E+00
  0.00000000E+00  0.00000000E+00  0.00000000E+00
  0.00000000E+00  0.00000000E+00  0.00000000E+00
  0.00000000E+00  0.00000000E+00  0.00000000E+00
  0.00000000E+00  0.00000000E+00  0.00000000E+00
  0.00000000E+00  0.00000000E+00  0.00000000E+00
  0.00000000E+00  0.00000000E+00  0.00000000E+00
  0.00000000E+00  0.00000000E+00  0.00000000E+00
  0.00000000E+00  0.00000000E+00  0.00000000E+00
  0.00000000E+00  0.00000000E+00  0.00000000E+00
  0.00000000E+00  0.00000000E+00  0.00000000E+00
  0.00000000E+00  0.00000000E+00  0.00000000E+00
  0.00000000E+00  0.00000000E+00  0.00000000E+00
  0.00000000E+00  0.00000000E+00  0.00000000E+00
  0.00000000E+00  0.00000000E+00  0.00000000E+00
  0.00000000E+00  0.00000000E+00  0.00000000E+00
  0.00000000E+00  0.00000000E+00  0.00000000E+00
  0.00000000E+00  0.00000000E+00  0.00000000E+00
  0.00000000E+00  0.00000000E+00  0.00000000E+00
  0.00000000E+00  0.00000000E+00  0.00000000E+00
  0.00000000E+00  0.00000000E+00  0.00000000E+00
  0.00000000E+00  0.00000000E+00  0.00000000E+00
  0.00000000E+00  0.00000000E+00  0.00000000E+00
  0.00000000E+00  0.00000000E+00  0.00000000E+00
  0.00000000E+00  0.00000000E+00  0.00000000E+00
  0.00000000E+00  0.00000000E+00  0.00000000E+00
  0.00000000E+00  0.00000000E+00  0.00000000E+00
  0.00000000E+00  0.00000000E+00  0.00000000E+00
  0.00000000E+00  0.00000000E+00  0.00000000E+00
  0.00000000E+00  0.00000000E+00  0.00000000E+00
  0.00000000E+00  0.00000000E+00  0.00000000E+00
  0.00000000E+00  0.00000000E+00  0.00000000E+00
  0.00000000E+00  0.00000000E+00  0.00000000E+00
  0.00000000E+00  0.00000000E+00  0.00000000E+00
  0.00000000E+00  0.00000000E+00  0.00000000E+00
  0.00000000E+00  0.00000000E+00  0.00000000E+00
  0.00000000E+00  0.00000000E+00  0.00000000E+00
  0.00000000E+00  0.00000000E+00  0.00000000E+00
  0.00000000E+00  0.00000000E+00  0.00000000E+00
  0.00000000E+00  0.00000000E+00  0.00000000E+00
  0.00000000E+00  0.00000000E+00  0.00000000E+00
  0.00000000E+00  0.00000000E+00  0.00000000E+00
  0.00000000E+00  0.00000000E+00  0.00000000E+00
  0.00000000E+00  0.00000000E+00  0.00000000E+00
  0.00000000E+00  0.00000000E+00  0.00000000E+00
  0.00000000E+00  0.00000000E+00  0.00000000E+00
  0.00000000E+00  0.00000000E+00  0.00000000E+00
  0.00000000E+00  0.00000000E+00  0.00000000E+00
  0.00000000E+00  0.00000000E+00  0.00000000E+00
  0.00000000E+00  0.00000000E+00  0.00000000E+00
  0.00000000E+00  0.00000000E+00  0.00000000E+00
  0.00000000E+00  0.00000000E+00  0.00000000E+00
  0.00000000E+00  0.00000000E+00  0.00000000E+00
  0.00000000E+00  0.00000000E+00  0.00000000E+00
  0.00000000E+00  0.00000000E+00  0.00000000E+00
  0.00000000E+00  0.00000000E+00  0.00000000E+00
  0.00000000E+00  0.00000000E+00  0.00000000E+00
  0.00000000E+00  0.00000000E+00  0.00000000E+00
  0.00000000E+00  0.00000000E+00  0.00000000E+00
  0.00000000E+00  0.00000000E+00  0.00000000E+00
  0.00000000E+00  0.00000000E+00  0.00000000E+00
  0.00000000E+00  0.00000000E+00  0.00000000E+00
  0.00000000E+00  0.00000000E+00  0.00000000E+00
  0.00000000E+00  0.00000000E+00  0.00000000E+00
  0.00000000E+00  0.00000000E+00  0.00000000E+00
  0.00000000E+00  0.00000000E+00  0.00000000E+00
  0.00000000E+00  0.00000000E+00  0.00000000E+00
  0.00000000E+00  0.00000000E+00  0.00000000E+00
  0.00000000E+00  0.00000000E+00  0.00000000E+00
  0.00000000E+00  0.00000000E+00  0.00000000E+00
  0.00000000E+00  0.00000000E+00  0.00000000E+00
  0.00000000E+00  0.00000000E+00  0.00000000E+00
  0.00000000E+00  0.00000000E+00  0.00000000E+00
  0.00000000E+00  0.00000000E+00  0.00000000E+00
  0.00000000E+00  0.00000000E+00  0.00000000E+00
  0.00000000E+00  0.00000000E+00  0.00000000E+00
  0.00000000E+00  0.00000000E+00  0.00000000E+00
  0.00000000E+00  0.00000000E+00  0.00000000E+00
  0.00000000E+00  0.00000000E+00  0.00000000E+00
  0.00000000E+00  0.00000000E+00  0.00000000E+00
  0.00000000E+00  0.00000000E+00  0.00000000E+00
  0.00000000E+00  0.00000000E+00  0.00000000E+00
  0.00000000E+00  0.00000000E+00  0.00000000E+00
  0.00000000E+00  0.00000000E+00  0.00000000E+00
  0.00000000E+00  0.00000000E+00  0.00000000E+00
  0.00000000E+00  0.00000000E+00  0.00000000E+00
  0.00000000E+00  0.00000000E+00  0.00000000E+00
  0.00000000E+00  0.00000000E+00  0.00000000E+00
  0.00000000E+00  0.00000000E+00  0.00000000E+00
  0.00000000E+00  0.00000000E+00  0.00000000E+00
  0.00000000E+00  0.00000000E+00  0.00000000E+00
  0.00000000E+00  0.00000000E+00  0.00000000E+00
  0.00000000E+00  0.00000000E+00  0.00000000E+00
  0.00000000E+00  0.00000000E+00  0.00000000E+00
