       N       E                     dE             d eps       ncg     rms          ort
SDA:   1    -0.810397666449E+03   -0.81040E+03    0.00000E+00   212   0.189E+01 0.000E+00
CGA:   2    -0.811085038410E+03   -0.68737E+00   -0.67991E+00   212   0.113E+01 0.451E-01
CGA:   3    -0.811285589912E+03   -0.20055E+00   -0.20056E+00   212   0.261E+00 0.176E-02
CGA:   4    -0.811347264706E+03   -0.61675E-01   -0.61633E-01   212   0.113E+00 0.777E-03
CGA:   5    -0.811374675173E+03   -0.27410E-01   -0.27379E-01   212   0.468E-01 0.472E-03
CGA:   6    -0.811386483578E+03   -0.11808E-01   -0.11797E-01   212   0.228E-01 0.179E-03
CGA:   7    -0.811392448009E+03   -0.59644E-02   -0.59581E-02   212   0.866E-02 0.994E-04
CGA:   8    -0.811394843198E+03   -0.23952E-02   -0.23930E-02   212   0.338E-02 0.320E-04
CGA:   9    -0.811395702073E+03   -0.85887E-03   -0.85847E-03   212   0.129E-02 0.140E-04
CGA:  10    -0.811396043742E+03   -0.34167E-03   -0.34129E-03   212   0.495E-03 0.119E-04
CGA:  11    -0.811396177902E+03   -0.13416E-03   -0.13390E-03   212   0.199E-03 0.876E-05
CGA:  12    -0.811396233960E+03   -0.56058E-04   -0.56053E-04   212   0.924E-04 0.300E-05
CGA:  13    -0.811396263874E+03   -0.29914E-04   -0.30101E-04   212   0.507E-04-0.922E-07
CGA:  14    -0.811396278924E+03   -0.15050E-04   -0.15281E-04   212   0.247E-04-0.941E-06
CGA:  15    -0.811396285696E+03   -0.67716E-05   -0.70152E-05   212   0.116E-04-0.166E-05
CGA:  16    -0.811396288994E+03   -0.32982E-05   -0.36844E-05   212   0.722E-05-0.201E-05
CGA:  17    -0.811396290489E+03   -0.14948E-05   -0.16862E-05   212   0.409E-05-0.110E-05
CGA:  18    -0.811396291233E+03   -0.74416E-06   -0.88016E-06   212   0.192E-05-0.627E-06
   1 F= -.81533480E+03 E0= -.81533480E+03  d E =-.553311E-13
