 vasp.5.4.1 24Jun15 (build Feb 10 2025 21:25:14) gamma-only                     
  
 executed on           IFC91_ompi date 2026.02.18  16:00:58
 running on    4 total cores
 distrk:  each k-point on    4 cores,    1 groups
 distr:  one band on NCORES_PER_BAND=   1 cores,    4 groups


--------------------------------------------------------------------------------------------------------


 INCAR:
 POTCAR:    PAW_PBE C 08Apr2002                   
 POTCAR:    PAW_PBE F 08Apr2002                   
 POTCAR:    PAW_PBE H 15Jun2001                   
 POTCAR:    PAW_PBE N 08Apr2002                   
 POTCAR:    PAW_PBE Si 05Jan2001                  
 POTCAR:    PAW_PBE C 08Apr2002                   
   VRHFIN =C: s2p2                                                              
   LEXCH  = PE                                                                  
   EATOM  =   147.1560 eV,   10.8157 Ry                                         
                                                                                
   TITEL  = PAW_PBE C 08Apr2002                                                 
   LULTRA =        F    use ultrasoft PP ?                                      
   IUNSCR =        1    unscreen: 0-lin 1-nonlin 2-no                           
   RPACOR =    1.200    partial core radius                                     
   POMASS =   12.011; ZVAL   =    4.000    mass and valenz                      
   RCORE  =    1.500    outmost cutoff radius                                   
   RWIGS  =    1.630; RWIGS  =    0.863    wigner-seitz radius (au A)           
   ENMAX  =  400.000; ENMIN  =  300.000 eV                                      
   ICORE  =        2    local potential                                         
   LCOR   =        T    correct aug charges                                     
   LPAW   =        T    paw PP                                                  
   EAUG   =  644.873                                                            
   DEXC   =    0.000                                                            
   RMAX   =    1.529    core radius for proj-oper                               
   RAUG   =    1.300    factor for augmentation sphere                          
   RDEP   =    1.501    radius for radial grids                                 
   RDEPT  =    1.300    core radius for aug-charge                              
                                                                                
   Atomic configuration                                                         
    4 entries                                                                   
     n  l   j            E        occ.                                          
     1  0  0.50      -273.3789   2.0000                                         
     2  0  0.50       -13.7508   2.0000                                         
     2  1  0.50        -5.2854   2.0000                                         
     3  2  1.50        -5.4423   0.0000                                         
   Description                                                                  
     l       E           TYP  RCUT    TYP  RCUT                                 
     0    -13.7508458     23  1.200                                             
     0     -8.2022199     23  1.200                                             
     1     -5.2854383     23  1.500                                             
     1     34.0145650     23  1.500                                             
     2     -5.4423304      7  1.500                                             
  local pseudopotential read in
  partial core-charges read in
  partial kinetic energy density read in
  atomic valenz-charges read in
  non local Contribution for L=           0  read in
    real space projection operators read in
  non local Contribution for L=           0  read in
    real space projection operators read in
  non local Contribution for L=           1  read in
    real space projection operators read in
  non local Contribution for L=           1  read in
    real space projection operators read in
    PAW grid and wavefunctions read in
 
   number of l-projection  operators is LMAX  =           4
   number of lm-projection operators is LMMAX =           8
 
 POTCAR:    PAW_PBE F 08Apr2002                   
   VRHFIN =F: s2p5                                                              
   LEXCH  = PE                                                                  
   EATOM  =   659.6475 eV,   48.4827 Ry                                         
                                                                                
   TITEL  = PAW_PBE F 08Apr2002                                                 
   LULTRA =        F    use ultrasoft PP ?                                      
   IUNSCR =        1    unscreen: 0-lin 1-nonlin 2-no                           
   RPACOR =    1.200    partial core radius                                     
   POMASS =   18.998; ZVAL   =    7.000    mass and valenz                      
   RCORE  =    1.520    outmost cutoff radius                                   
   RWIGS  =    1.500; RWIGS  =    0.794    wigner-seitz radius (au A)           
   ENMAX  =  400.000; ENMIN  =  300.000 eV                                      
   ICORE  =        2    local potential                                         
   LCOR   =        T    correct aug charges                                     
   LPAW   =        T    paw PP                                                  
   EAUG   =  613.614                                                            
   RMAX   =    1.555    core radius for proj-oper                               
   RAUG   =    1.300    factor for augmentation sphere                          
   RDEP   =    1.539    radius for radial grids                                 
   RDEPT  =    1.299    core radius for aug-charge                              
                                                                                
   Atomic configuration                                                         
    4 entries                                                                   
     n  l   j            E        occ.                                          
     1  0  0.50      -663.3661   2.0000                                         
     2  0  0.50       -29.8995   2.0000                                         
     2  1  0.50       -11.1114   5.0000                                         
     3  2  1.50       -10.8847   0.0000                                         
   Description                                                                  
     l       E           TYP  RCUT    TYP  RCUT                                 
     0    -29.8995018     23  1.200                                             
     0     -9.5240782     23  1.200                                             
     1    -11.1113914     23  1.520                                             
     1      1.3605826     23  1.520                                             
     2    -10.8846608      7  1.500                                             
  local pseudopotential read in
  partial core-charges read in
  partial kinetic energy density read in
  atomic valenz-charges read in
  non local Contribution for L=           0  read in
    real space projection operators read in
  non local Contribution for L=           0  read in
    real space projection operators read in
  non local Contribution for L=           1  read in
    real space projection operators read in
  non local Contribution for L=           1  read in
    real space projection operators read in
    PAW grid and wavefunctions read in
 
   number of l-projection  operators is LMAX  =           4
   number of lm-projection operators is LMMAX =           8
 
 POTCAR:    PAW_PBE H 15Jun2001                   
   VRHFIN =H: ultrasoft test                                                    
   LEXCH  = PE                                                                  
   EATOM  =    12.4884 eV,    0.9179 Ry                                         
                                                                                
   TITEL  = PAW_PBE H 15Jun2001                                                 
   LULTRA =        F    use ultrasoft PP ?                                      
   IUNSCR =        0    unscreen: 0-lin 1-nonlin 2-no                           
   RPACOR =    0.000    partial core radius                                     
   POMASS =    1.000; ZVAL   =    1.000    mass and valenz                      
   RCORE  =    1.100    outmost cutoff radius                                   
   RWIGS  =    0.700; RWIGS  =    0.370    wigner-seitz radius (au A)           
   ENMAX  =  250.000; ENMIN  =  200.000 eV                                      
   RCLOC  =    0.701    cutoff for local pot                                    
   LCOR   =        T    correct aug charges                                     
   LPAW   =        T    paw PP                                                  
   EAUG   =  400.000                                                            
   RMAX   =    1.123    core radius for proj-oper                               
   RAUG   =    1.200    factor for augmentation sphere                          
   RDEP   =    1.112    radius for radial grids                                 
   RDEPT  =    0.926    core radius for aug-charge                              
                                                                                
   Atomic configuration                                                         
    2 entries                                                                   
     n  l   j            E        occ.                                          
     1  0  0.50        -6.4927   1.0000                                         
     2  1  0.50        -3.4015   0.0000                                         
   Description                                                                  
     l       E           TYP  RCUT    TYP  RCUT                                 
     0     -6.4927494     23  1.100                                             
     0      6.8029130     23  1.100                                             
     1     -4.0817478     23  1.100                                             
  local pseudopotential read in
  atomic valenz-charges read in
  non local Contribution for L=           0  read in
    real space projection operators read in
  non local Contribution for L=           0  read in
    real space projection operators read in
  non local Contribution for L=           1  read in
    real space projection operators read in
    PAW grid and wavefunctions read in
 
   number of l-projection  operators is LMAX  =           3
   number of lm-projection operators is LMMAX =           5
 
 POTCAR:    PAW_PBE N 08Apr2002                   
   VRHFIN =N: s2p3                                                              
   LEXCH  = PE                                                                  
   EATOM  =   264.5486 eV,   19.4438 Ry                                         
                                                                                
   TITEL  = PAW_PBE N 08Apr2002                                                 
   LULTRA =        F    use ultrasoft PP ?                                      
   IUNSCR =        1    unscreen: 0-lin 1-nonlin 2-no                           
   RPACOR =    1.200    partial core radius                                     
   POMASS =   14.001; ZVAL   =    5.000    mass and valenz                      
   RCORE  =    1.500    outmost cutoff radius                                   
   RWIGS  =    1.400; RWIGS  =    0.741    wigner-seitz radius (au A)           
   ENMAX  =  400.000; ENMIN  =  300.000 eV                                      
   ICORE  =        2    local potential                                         
   LCOR   =        T    correct aug charges                                     
   LPAW   =        T    paw PP                                                  
   EAUG   =  627.112                                                            
   DEXC   =    0.000                                                            
   RMAX   =    1.529    core radius for proj-oper                               
   RAUG   =    1.300    factor for augmentation sphere                          
   RDEP   =    1.514    radius for radial grids                                 
   RDEPT  =    1.338    core radius for aug-charge                              
                                                                                
   Atomic configuration                                                         
    4 entries                                                                   
     n  l   j            E        occ.                                          
     1  0  0.50      -384.7179   2.0000                                         
     2  0  0.50       -18.5828   2.0000                                         
     2  1  0.50        -7.0898   3.0000                                         
     3  2  1.50        -6.8029   0.0000                                         
   Description                                                                  
     l       E           TYP  RCUT    TYP  RCUT                                 
     0    -18.5828119     23  1.200                                             
     0    -13.5018863     23  1.200                                             
     1     -7.0897853     23  1.500                                             
     1      9.5240782     23  1.500                                             
     2     -6.8029130      7  1.500                                             
  local pseudopotential read in
  partial core-charges read in
  partial kinetic energy density read in
  atomic valenz-charges read in
  non local Contribution for L=           0  read in
    real space projection operators read in
  non local Contribution for L=           0  read in
    real space projection operators read in
  non local Contribution for L=           1  read in
    real space projection operators read in
  non local Contribution for L=           1  read in
    real space projection operators read in
    PAW grid and wavefunctions read in
 
   number of l-projection  operators is LMAX  =           4
   number of lm-projection operators is LMMAX =           8
 
 POTCAR:    PAW_PBE Si 05Jan2001                  
   VRHFIN =Si: s2p2                                                             
   LEXCH  = PE                                                                  
   EATOM  =   103.0669 eV,    7.5752 Ry                                         
                                                                                
   TITEL  = PAW_PBE Si 05Jan2001                                                
   LULTRA =        F    use ultrasoft PP ?                                      
   IUNSCR =        1    unscreen: 0-lin 1-nonlin 2-no                           
   RPACOR =    1.500    partial core radius                                     
   POMASS =   28.085; ZVAL   =    4.000    mass and valenz                      
   RCORE  =    1.900    outmost cutoff radius                                   
   RWIGS  =    2.480; RWIGS  =    1.312    wigner-seitz radius (au A)           
   ENMAX  =  245.345; ENMIN  =  184.009 eV                                      
   ICORE  =        2    local potential                                         
   LCOR   =        T    correct aug charges                                     
   LPAW   =        T    paw PP                                                  
   EAUG   =  322.069                                                            
   DEXC   =    0.000                                                            
   RMAX   =    1.950    core radius for proj-oper                               
   RAUG   =    1.300    factor for augmentation sphere                          
   RDEP   =    1.993    radius for radial grids                                 
   RDEPT  =    1.837    core radius for aug-charge                              
                                                                                
   Atomic configuration                                                         
    6 entries                                                                   
     n  l   j            E        occ.                                          
     1  0  0.50     -1785.8828   2.0000                                         
     2  0  0.50      -139.4969   2.0000                                         
     2  1  1.50       -95.5546   6.0000                                         
     3  0  0.50       -10.8127   2.0000                                         
     3  1  0.50        -4.0811   2.0000                                         
     3  2  1.50        -4.0817   0.0000                                         
   Description                                                                  
     l       E           TYP  RCUT    TYP  RCUT                                 
     0    -10.8127223     23  1.900                                             
     0     -7.6451159     23  1.900                                             
     1     -4.0811372     23  1.900                                             
     1      2.4879257     23  1.900                                             
     2     -4.0817478      7  1.900                                             
  local pseudopotential read in
  partial core-charges read in
  partial kinetic energy density read in
  atomic valenz-charges read in
  non local Contribution for L=           0  read in
    real space projection operators read in
  non local Contribution for L=           0  read in
    real space projection operators read in
  non local Contribution for L=           1  read in
    real space projection operators read in
  non local Contribution for L=           1  read in
    real space projection operators read in
    PAW grid and wavefunctions read in
 
   number of l-projection  operators is LMAX  =           4
   number of lm-projection operators is LMMAX =           8
 

 ----------------------------------------------------------------------------- 
|                                                                             |
|  ADVICE TO THIS USER RUNNING 'VASP/VAMP'   (HEAR YOUR MASTER'S VOICE ...):  |
|                                                                             |
|      You have a (more or less) 'large supercell' and for larger cells       |
|      it might be more efficient to use real space projection opertators     |
|      So try LREAL= Auto  in the INCAR   file.                               |
|      Mind: At the moment your POTCAR file does not contain real space       |
|       projectors, and has to be modified,  BUT if you                       |
|      want to do an extremely  accurate calculation you might also keep the  |
|      reciprocal projection scheme          (i.e. LREAL=.FALSE.)             |
|                                                                             |
 ----------------------------------------------------------------------------- 

  PAW_PBE C 08Apr2002                   :
 energy of atom  1       EATOM= -147.1560
 kinetic energy error for atom=    0.0076 (will be added to EATOM!!)
  PAW_PBE F 08Apr2002                   :
 energy of atom  2       EATOM= -659.6475
 kinetic energy error for atom=    0.0354 (will be added to EATOM!!)
  PAW_PBE H 15Jun2001                   :
 energy of atom  3       EATOM=  -12.4884
 kinetic energy error for atom=    0.0020 (will be added to EATOM!!)
  PAW_PBE N 08Apr2002                   :
 energy of atom  4       EATOM= -264.5486
 kinetic energy error for atom=    0.0138 (will be added to EATOM!!)
  PAW_PBE Si 05Jan2001                  :
 energy of atom  5       EATOM= -103.0669
 kinetic energy error for atom=    0.0006 (will be added to EATOM!!)
 
 
 POSCAR: Molecule_POSCAR_03                      
  positions in cartesian coordinates
  No initial velocities read in
 exchange correlation table for  LEXCH =        8
   RHO(1)=    0.500       N(1)  =     2000
   RHO(2)=  100.500       N(2)  =     4000

 VTST: version 3.2, (02/03/18)

 CHAIN: initializing optimizer
 
 OPT: Using VASP Dynamics algorithm
 CHAIN: Read ICHAIN            0
 
 POSCAR: Molecule_POSCAR_03                      
  positions in cartesian coordinates
  No initial velocities read in
 


--------------------------------------------------------------------------------------------------------


 ion  position               nearest neighbor table
   1  0.359  0.505  0.460-  45 1.08  43 1.13  44 1.14   2 1.50
   2  0.383  0.545  0.478-   1 1.50   3 1.53   4 1.54 119 1.88
   3  0.390  0.537  0.528-  48 1.08  47 1.10  46 1.13   2 1.53
   4  0.354  0.587  0.476-  50 1.11  51 1.11  49 1.12   2 1.54
   5  0.512  0.515  0.488- 118 1.43 115 1.44   6 1.45
   6  0.519  0.556  0.513- 116 1.29   5 1.45 120 1.84
   7  0.534  0.655  0.530-   9 1.49   8 1.54  10 1.56 120 1.82
   8  0.503  0.642  0.569-  53 1.08  52 1.09  54 1.13   7 1.54
   9  0.513  0.693  0.507-  56 1.10  55 1.11  57 1.15   7 1.49
  10  0.574  0.675  0.555-  60 1.09  58 1.11  59 1.11   7 1.56
  11  0.563  0.616  0.440-  13 1.48  12 1.53  14 1.57 120 1.80
  12  0.577  0.574  0.414-  63 1.08  61 1.11  62 1.12  11 1.53
  13  0.533  0.643  0.412-  64 1.07  66 1.13  65 1.14  11 1.48
  14  0.608  0.643  0.439-  69 1.09  67 1.11  68 1.11  11 1.57
  15  0.489  0.522  0.579- 117 1.29 116 1.39  16 1.51
  16  0.474  0.526  0.627-  40 1.36  41 1.38  39 1.40  15 1.51
  17  0.535  0.410  0.446-  20 1.51  18 1.51  19 1.55 121 1.83
  18  0.507  0.394  0.408-  70 1.08  72 1.10  71 1.15  17 1.51
  19  0.572  0.374  0.448-  74 1.08  73 1.08  75 1.14  17 1.55
  20  0.560  0.451  0.429-  78 1.07  76 1.12  77 1.13  17 1.51
  21  0.451  0.394  0.500-  22 1.50  24 1.50  23 1.54 121 1.87
  22  0.423  0.406  0.460-  80 1.07  81 1.13  79 1.14  21 1.50
  23  0.454  0.343  0.498-  83 1.09  82 1.11  84 1.12  21 1.54
  24  0.423  0.405  0.540-  86 1.07  85 1.14  87 1.14  21 1.50
  25  0.591  0.431  0.578-  26 1.49  28 1.51  27 1.54 122 1.88
  26  0.573  0.454  0.618-  89 1.08  88 1.13  90 1.13  25 1.49
  27  0.634  0.408  0.594-  91 1.09  93 1.09  92 1.14  25 1.54
  28  0.608  0.464  0.544-  96 1.08  95 1.09  94 1.14  25 1.51
  29  0.528  0.351  0.593-  32 1.46  31 1.54  30 1.55 122 1.82
  30  0.564  0.347  0.629-  98 1.08  99 1.08  97 1.14  29 1.55
  31  0.524  0.303  0.576- 101 1.11 102 1.11 100 1.12  29 1.54
  32  0.487  0.361  0.618- 105 1.08 104 1.13 103 1.14  29 1.46
  33  0.424  0.572  0.390-  34 1.50  35 1.51  36 1.53 119 1.87
  34  0.380  0.554  0.374- 107 1.08 108 1.12 106 1.14  33 1.50
  35  0.422  0.622  0.383- 111 1.11 109 1.12 110 1.12  33 1.51
  36  0.458  0.549  0.360- 114 1.08 112 1.10 113 1.11  33 1.53
  37  0.454  0.606  0.473- 119 1.72
  38  0.604  0.594  0.520- 120 1.77
  39  0.440  0.558  0.627-  16 1.40
  40  0.458  0.485  0.640-  16 1.36
  41  0.507  0.542  0.654-  16 1.38
  42  0.589  0.354  0.527- 122 1.73
  43  0.356  0.478  0.486-   1 1.13
  44  0.322  0.514  0.455-   1 1.14
  45  0.373  0.490  0.430-   1 1.08
  46  0.357  0.542  0.544-   3 1.13
  47  0.411  0.563  0.542-   3 1.10
  48  0.399  0.503  0.535-   3 1.08
  49  0.319  0.577  0.467-   4 1.12
  50  0.351  0.603  0.508-   4 1.11
  51  0.367  0.612  0.453-   4 1.11
  52  0.520  0.624  0.595-   8 1.09
  53  0.472  0.628  0.557-   8 1.08
  54  0.494  0.675  0.584-   8 1.13
  55  0.534  0.710  0.482-   9 1.11
  56  0.478  0.687  0.497-   9 1.10
  57  0.509  0.719  0.534-   9 1.15
  58  0.560  0.698  0.581-  10 1.11
  59  0.594  0.649  0.572-  10 1.11
  60  0.594  0.695  0.532-  10 1.09
  61  0.574  0.582  0.378-  12 1.11
  62  0.612  0.565  0.422-  12 1.12
  63  0.556  0.546  0.421-  12 1.08
  64  0.506  0.659  0.429-  13 1.07
  65  0.551  0.667  0.389-  13 1.14
  66  0.517  0.620  0.386-  13 1.13
  67  0.600  0.678  0.449-  14 1.11
  68  0.620  0.645  0.404-  14 1.11
  69  0.632  0.626  0.459-  14 1.09
  70  0.495  0.361  0.411-  18 1.08
  71  0.532  0.391  0.379-  18 1.15
  72  0.484  0.420  0.394-  18 1.10
  73  0.603  0.388  0.462-  19 1.08
  74  0.560  0.342  0.459-  19 1.08
  75  0.582  0.369  0.412-  19 1.14
  76  0.588  0.441  0.406-  20 1.12
  77  0.538  0.471  0.406-  20 1.13
  78  0.569  0.471  0.457-  20 1.07
  79  0.386  0.407  0.469-  22 1.14
  80  0.429  0.439  0.446-  22 1.07
  81  0.422  0.380  0.434-  22 1.13
  82  0.438  0.327  0.527-  23 1.11
  83  0.488  0.332  0.492-  23 1.09
  84  0.435  0.329  0.469-  23 1.12
  85  0.407  0.374  0.554-  24 1.14
  86  0.438  0.425  0.566-  24 1.07
  87  0.392  0.424  0.531-  24 1.14
  88  0.575  0.491  0.612-  26 1.13
  89  0.539  0.447  0.627-  26 1.08
  90  0.593  0.449  0.649-  26 1.13
  91  0.635  0.402  0.629-  27 1.09
  92  0.664  0.431  0.589-  27 1.14
  93  0.642  0.379  0.572-  27 1.09
  94  0.640  0.478  0.558-  28 1.14
  95  0.587  0.493  0.540-  28 1.09
  96  0.618  0.446  0.514-  28 1.08
  97  0.550  0.318  0.651-  30 1.14
  98  0.595  0.334  0.617-  30 1.08
  99  0.564  0.375  0.651-  30 1.08
 100  0.488  0.291  0.577-  31 1.12
 101  0.541  0.278  0.598-  31 1.11
 102  0.540  0.299  0.543-  31 1.11
 103  0.489  0.344  0.652-  32 1.14
 104  0.459  0.341  0.603-  32 1.13
 105  0.479  0.395  0.626-  32 1.08
 106  0.371  0.575  0.344-  34 1.14
 107  0.352  0.558  0.396-  34 1.08
 108  0.383  0.520  0.359-  34 1.12
 109  0.388  0.634  0.374-  35 1.12
 110  0.445  0.632  0.356-  35 1.12
 111  0.431  0.640  0.414-  35 1.11
 112  0.447  0.516  0.349-  36 1.10
 113  0.462  0.571  0.331-  36 1.11
 114  0.488  0.546  0.380-  36 1.08
 115  0.475  0.517  0.457-   5 1.44 119 1.67
 116  0.507  0.557  0.555-   6 1.29  15 1.39
 117  0.487  0.484  0.558-  15 1.29 118 1.39
 118  0.501  0.477  0.515- 117 1.39   5 1.43 121 1.82
 119  0.438  0.557  0.449- 115 1.67  37 1.72  33 1.87   2 1.88
 120  0.551  0.606  0.498-  38 1.77  11 1.80   7 1.82   6 1.84
 121  0.508  0.419  0.500- 118 1.82  17 1.83  21 1.87 122 2.23
 122  0.551  0.389  0.552-  42 1.73  29 1.82  25 1.88 121 2.23
 
  LATTYP: Found a simple cubic cell.
 ALAT       =    30.0000000000
  
  Lattice vectors:
  
 A1 = (  30.0000000000,   0.0000000000,   0.0000000000)
 A2 = (   0.0000000000,  30.0000000000,   0.0000000000)
 A3 = (   0.0000000000,   0.0000000000,  30.0000000000)


Analysis of symmetry for initial positions (statically):
=====================================================================
 Subroutine PRICEL returns:
 Original cell was already a primitive cell.
 

 Routine SETGRP: Setting up the symmetry group for a 
 simple cubic supercell.


 Subroutine GETGRP returns: Found  1 space group operations
 (whereof  1 operations were pure point group operations)
 out of a pool of 48 trial point group operations.


The static configuration has the point symmetry C_1 .


Analysis of symmetry for dynamics (positions and initial velocities):
=====================================================================
 Subroutine PRICEL returns:
 Original cell was already a primitive cell.
 

 Routine SETGRP: Setting up the symmetry group for a 
 simple cubic supercell.


 Subroutine GETGRP returns: Found  1 space group operations
 (whereof  1 operations were pure point group operations)
 out of a pool of 48 trial point group operations.


The dynamic configuration has the point symmetry C_1 .
 
 
 KPOINTS: Gamma-point only                        

Automatic generation of k-mesh.
Space group operators:
 irot       det(A)        alpha          n_x          n_y          n_z        tau_x        tau_y        tau_z
    1     1.000000     0.000000     1.000000     0.000000     0.000000     0.000000     0.000000     0.000000
 
 Subroutine IBZKPT returns following result:
 ===========================================
 
 Found      1 irreducible k-points:
 
 Following reciprocal coordinates:
            Coordinates               Weight
  0.000000  0.000000  0.000000      1.000000
 
 Following cartesian coordinates:
            Coordinates               Weight
  0.000000  0.000000  0.000000      1.000000
 
 
 Subroutine IBZKPT_HF returns following result:
 ==============================================
 
 Found      1 k-points in 1st BZ
 the following      1 k-points will be used (e.g. in the exchange kernel)
 Following reciprocal coordinates:   # in IRBZ
  0.000000  0.000000  0.000000    1.00000000   1 t-inv F


--------------------------------------------------------------------------------------------------------




 Dimension of arrays:
   k-points           NKPTS =      1   k-points in BZ     NKDIM =      1   number of bands    NBANDS=    212
   number of dos      NEDOS =    301   number of ions     NIONS =    122
   non local maximal  LDIM  =      4   non local SUM 2l+1 LMDIM =      8
   total plane-waves  NPLWV = ******
   max r-space proj   IRMAX =      1   max aug-charges    IRDMAX=   6071
   dimension x,y,z NGX =   168 NGY =  168 NGZ =  168
   dimension x,y,z NGXF=   336 NGYF=  336 NGZF=  336
   support grid    NGXF=   336 NGYF=  336 NGZF=  336
   ions per type =              36   6  72   4   4
 NGX,Y,Z   is equivalent  to a cutoff of   9.31,  9.31,  9.31 a.u.
 NGXF,Y,Z  is equivalent  to a cutoff of  18.62, 18.62, 18.62 a.u.


 I would recommend the setting:
   dimension x,y,z NGX =   164 NGY =  164 NGZ =  164
 SYSTEM =  Step2_PBE0_Final_Calc                   
 POSCAR =  Molecule_POSCAR_03                      

 Startparameter for this run:
   NWRITE =      2    write-flag & timer
   PREC   = normal    normal or accurate (medium, high low for compatibility)
   ISTART =      1    job   : 0-new  1-cont  2-samecut
   ICHARG =      0    charge: 1-file 2-atom 10-const
   ISPIN  =      1    spin polarized calculation?
   LNONCOLLINEAR =      F non collinear calculations
   LSORBIT =      F    spin-orbit coupling
   INIWAV =      1    electr: 0-lowe 1-rand  2-diag
   LASPH  =      T    aspherical Exc in radial PAW
   METAGGA=      F    non-selfconsistent MetaGGA calc.

 Electronic Relaxation 1
   ENCUT  =  500.0 eV  36.75 Ry    6.06 a.u.  54.70 54.70 54.70*2*pi/ulx,y,z
   ENINI  =  500.0     initial cutoff
   ENAUG  =  644.9 eV  augmentation charge cutoff
   NELM   =    100;   NELMIN=  2; NELMDL=  0     # of ELM steps 
   EDIFF  = 0.1E-05   stopping-criterion for ELM
   LREAL  =      F    real-space projection
   NLSPLINE    = F    spline interpolate recip. space projectors
   LCOMPAT=      F    compatible to vasp.4.4
   GGA_COMPAT  = T    GGA compatible to vasp.4.4-vasp.4.6
   LMAXPAW     = -100 max onsite density
   LMAXMIX     =    2 max onsite mixed and CHGCAR
   VOSKOWN=      0    Vosko Wilk Nusair interpolation
   ROPT   =    0.00000   0.00000   0.00000   0.00000
   ROPT   =    0.00000
 Ionic relaxation
   EDIFFG = 0.1E-04   stopping-criterion for IOM
   NSW    =      0    number of steps for IOM
   NBLOCK =      1;   KBLOCK =      1    inner block; outer block 
   IBRION =     -1    ionic relax: 0-MD 1-quasi-New 2-CG
   NFREE  =      0    steps in history (QN), initial steepest desc. (CG)
   ISIF   =      0    stress and relaxation
   IWAVPR =     10    prediction:  0-non 1-charg 2-wave 3-comb
   ISYM   =      3    0-nonsym 1-usesym 2-fastsym
   LCORR  =      T    Harris-Foulkes like correction to forces

   POTIM  = 0.5000    time-step for ionic-motion
   TEIN   =    0.0    initial temperature
   TEBEG  =    0.0;   TEEND  =   0.0 temperature during run
   SMASS  =  -3.00    Nose mass-parameter (am)
   estimated Nose-frequenzy (Omega)   =  0.10E-29 period in steps =****** mass=  -0.206E-25a.u.
   SCALEE = 1.0000    scale energy and forces
   NPACO  =    256;   APACO  = 16.0  distance and # of slots for P.C.
   PSTRESS=    0.0 pullay stress

  Mass of Ions in am
   POMASS =  12.01 19.00  1.00 14.00 28.09
  Ionic Valenz
   ZVAL   =   4.00  7.00  1.00  5.00  4.00
  Atomic Wigner-Seitz radii
   RWIGS  =  -1.00 -1.00 -1.00 -1.00 -1.00
  virtual crystal weights 
   VCA    =   1.00  1.00  1.00  1.00  1.00
   NELECT =     294.0000    total number of electrons
   NUPDOWN=      -1.0000    fix difference up-down

 DOS related values:
   EMIN   =  10.00;   EMAX   =-10.00  energy-range for DOS
   EFERMI =   0.00
   ISMEAR =     0;   SIGMA  =   0.05  broadening in eV -4-tet -1-fermi 0-gaus

 Electronic relaxation 2 (details)
   IALGO  =     58    algorithm
   LDIAG  =      T    sub-space diagonalisation (order eigenvalues)
   LSUBROT=      F    optimize rotation matrix (better conditioning)
   TURBO    =      0    0=normal 1=particle mesh
   IRESTART =      0    0=no restart 2=restart with 2 vectors
   NREBOOT  =      0    no. of reboots
   NMIN     =      0    reboot dimension
   EREF     =   0.00    reference energy to select bands
   IMIX   =      4    mixing-type and parameters
     AMIX     =   0.40;   BMIX     =  1.00
     AMIX_MAG =   1.60;   BMIX_MAG =  1.00
     AMIN     =   0.10
     WC   =   100.;   INIMIX=   1;  MIXPRE=   1;  MAXMIX= -45

 Intra band minimization:
   WEIMIN = 0.0000     energy-eigenvalue tresh-hold
   EBREAK =  0.12E-08  absolut break condition
   DEPER  =   0.30     relativ break condition  

   TIME   =   0.40     timestep for ELM

  volume/ion in A,a.u.               =     221.31      1493.48
  Fermi-wavevector in a.u.,A,eV,Ry     =   0.362857  0.685701  1.791418  0.131666
  Thomas-Fermi vector in A             =   1.284464
 
 Write flags
   LWAVE  =      F    write WAVECAR
   LCHARG =      F    write CHGCAR
   LVTOT  =      F    write LOCPOT, total local potential
   LVHAR  =      F    write LOCPOT, Hartree potential only
   LELF   =      F    write electronic localiz. function (ELF)
   LORBIT =      0    0 simple, 1 ext, 2 COOP (PROOUT)


 Dipole corrections
   LMONO  =      F    monopole corrections only (constant potential shift)
   LDIPOL =      F    correct potential (dipole corrections)
   IDIPOL =      0    1-x, 2-y, 3-z, 4-all directions 
   EPSILON=  1.0000000 bulk dielectric constant

 Exchange correlation treatment:
   GGA     =    PE    GGA type
   LEXCH   =     8    internal setting for exchange type
   VOSKOWN=      0    Vosko Wilk Nusair interpolation
   EXXOEP  =     0    0=HF, 1=EXX-LHF (local Hartree Fock) 2=EXX OEP
   LHFCALC =     T    Hartree Fock is set to
   LSYMGRAD=     F    symmetrize gradient (conserves proper symmetry)
   PRECFOCK=fast      Normal, Fast or Accurate (Low or Medium for compatibility)
   LRHFCALC=     F    long range Hartree Fock
   LRSCOR  =     F    long range correlation only (use DFT for short range part)
   LTHOMAS =     F    Thomas Fermi screening in HF
   LMODELHF=     F    short range full HF, long range fraction AEXX
   ENCUT4O =  -1.0   cutoff for four orbital integrals eV
   LMAXFOCK=     4    L truncation for augmentation on plane wave grid
   LMAXFOCKAE=  -1    L truncation for all-electron charge restoration on plane wave grid
   NMAXFOCKAE=   1    number of basis functions for all-electron charge restoration
   LFOCKAEDFT=     F  apply the AE augmentation even for DFT
   NKREDX  =     1    reduce k-point grid by
   NKREDY  =     1    reduce k-point grid by
   NKREDZ  =     1    reduce k-point grid by
   SHIFTRED=     F    shift reduced grid of Gamma
   HFKIDENT=     F    idential grid for each k-point
   ODDONLY =     F    use only odd q-grid points
   EVENONLY=     F    use only even q-grid points
   HFALPHA =   -1.0000 decay constant for conv. correction
   MCALPHA =    0.0000 extent of test-charge in conv. correction in multipole expansion
   AEXX    =    0.2500 exact exchange contribution
   HFSCREEN=    0.0000 screening length (either q_TF or 0.3 A-1)
   HFSCREENC=   0.0000 screening length for correlation (either q_TF or 0.3 A-1)
   HFRCUT  =    0.0000 spherical cutoff for potential kernel
   ALDAX   =    0.7500 LDA exchange part
   AGGAX   =    0.7500 GGA exchange part
   ALDAC   =    1.0000 LDA correlation
   AGGAC   =    1.0000 GGA correlation
   NBANDSGWLOW=     1    first orbital included in HF term
   ENCUTFOCK=  -1.0 apply spherical cutoff to Coloumb kernel
 Linear response parameters
   LEPSILON=     F    determine dielectric tensor
   LRPA    =     F    only Hartree local field effects (RPA)
   LNABLA  =     F    use nabla operator in PAW spheres
   LVEL    =     F    velocity operator in full k-point grid
   LINTERFAST=   F  fast interpolation
   KINTER  =     0    interpolate to denser k-point grid
   CSHIFT  =0.1000    complex shift for real part using Kramers Kronig
   OMEGAMAX=  -1.0    maximum frequency
   DEG_THRESHOLD= 0.2000000E-02 threshold for treating states as degnerate
   RTIME   =    0.100 relaxation time in fs

 Orbital magnetization related:
   ORBITALMAG=     F  switch on orbital magnetization
   LCHIMAG   =     F  perturbation theory with respect to B field
   DQ        =  0.001000  dq finite difference perturbation B field



--------------------------------------------------------------------------------------------------------


 Static calculation
 charge density and potential will be updated during run
 non-spin polarized calculation
 Conjugate gradient for all bands (Freysoldt, et al. PRB 79, 241103 (2009))
 preconditioned conjugated gradient                                        
 perform sub-space diagonalisation
    before iterative eigenvector-optimisation
 modified Broyden-mixing scheme, WC =      100.0
 initial mixing is a Kerker type mixing with AMIX =  0.4000 and BMIX =      1.0000
 Hartree-type preconditioning will be used
 using additional bands           65
 reciprocal scheme for non local part
 use partial core corrections
 no Harris-corrections to forces 
 use gradient corrections 
 use of overlap-Matrix (Vanderbilt PP)
 Gauss-broadening in eV      SIGMA  =   0.05


--------------------------------------------------------------------------------------------------------


  energy-cutoff  :      500.00
  volume of cell :    27000.00
      direct lattice vectors                 reciprocal lattice vectors
    30.000000000  0.000000000  0.000000000     0.033333333  0.000000000  0.000000000
     0.000000000 30.000000000  0.000000000     0.000000000  0.033333333  0.000000000
     0.000000000  0.000000000 30.000000000     0.000000000  0.000000000  0.033333333

  length of vectors
    30.000000000 30.000000000 30.000000000     0.033333333  0.033333333  0.033333333


 
 old parameters found on file WAVECAR:
  energy-cutoff  :      500.00
  volume of cell :    27000.00
      direct lattice vectors                 reciprocal lattice vectors
    30.000000000  0.000000000  0.000000000     0.033333333  0.000000000  0.000000000
     0.000000000 30.000000000  0.000000000     0.000000000  0.033333333  0.000000000
     0.000000000  0.000000000 30.000000000     0.000000000  0.000000000  0.033333333

  length of vectors

 
 k-points in units of 2pi/SCALE and weight: Gamma-point only                        
   0.00000000  0.00000000  0.00000000       1.000
 
 k-points in reciprocal lattice and weights: Gamma-point only                        
   0.00000000  0.00000000  0.00000000       1.000
 
 position of ions in fractional coordinates (direct lattice) 
   0.35903970  0.50516450  0.45990617
   0.38341473  0.54476553  0.47788323
   0.39037040  0.53712417  0.52767780
   0.35362560  0.58659627  0.47572233
   0.51166863  0.51537817  0.48817817
   0.51895820  0.55607393  0.51348840
   0.53414100  0.65451750  0.53024977
   0.50273963  0.64159260  0.56877747
   0.51253590  0.69261840  0.50689870
   0.57439323  0.67541737  0.55546423
   0.56296147  0.61610907  0.43981313
   0.57726547  0.57428930  0.41437307
   0.53250367  0.64273097  0.41156387
   0.60755823  0.64330263  0.43891280
   0.48937607  0.52167420  0.57936043
   0.47403007  0.52561850  0.62698350
   0.53527027  0.41024320  0.44616633
   0.50676053  0.39429757  0.40790620
   0.57247563  0.37445170  0.44812013
   0.55954910  0.45055913  0.42878253
   0.45050750  0.39402607  0.49992473
   0.42278900  0.40641190  0.46026460
   0.45402263  0.34272077  0.49773460
   0.42309480  0.40491470  0.54031750
   0.59092413  0.43063700  0.57766073
   0.57268250  0.45387353  0.61754100
   0.63411360  0.40756383  0.59351237
   0.60774827  0.46392390  0.54400273
   0.52768447  0.35097653  0.59293723
   0.56414880  0.34664227  0.62940170
   0.52366077  0.30253340  0.57623040
   0.48697573  0.36056390  0.61784847
   0.42362753  0.57169180  0.39011340
   0.37969047  0.55402337  0.37392853
   0.42199403  0.62169210  0.38342020
   0.45815983  0.54930527  0.36026433
   0.45402900  0.60596860  0.47321390
   0.60415477  0.59386743  0.51970100
   0.44039937  0.55799410  0.62701463
   0.45833513  0.48504983  0.63997760
   0.50737687  0.54223690  0.65401137
   0.58921730  0.35376063  0.52720513
   0.35584530  0.47779537  0.48566083
   0.32249050  0.51439960  0.45510400
   0.37295957  0.48987213  0.43036223
   0.35675797  0.54243803  0.54400653
   0.41142703  0.56348283  0.54170313
   0.39918230  0.50292227  0.53503167
   0.31884673  0.57679200  0.46673150
   0.35095600  0.60343593  0.50846523
   0.36747087  0.61192520  0.45269220
   0.52023490  0.62369773  0.59521020
   0.47162360  0.62778090  0.55695053
   0.49381593  0.67493753  0.58399263
   0.53361907  0.70968280  0.48179107
   0.47765693  0.68725027  0.49721407
   0.50945097  0.71942920  0.53400087
   0.56024040  0.69840343  0.58071037
   0.59367533  0.64855157  0.57199070
   0.59405600  0.69501773  0.53203893
   0.57439610  0.58246900  0.37843860
   0.61244610  0.56471730  0.42232933
   0.55628173  0.54595173  0.42142950
   0.50621980  0.65922917  0.42932733
   0.55106217  0.66709933  0.38891650
   0.51749457  0.61967327  0.38569557
   0.60023820  0.67809630  0.44873373
   0.61959253  0.64451740  0.40384837
   0.63227793  0.62642510  0.45947250
   0.49474187  0.36050643  0.41090217
   0.53204217  0.39104807  0.37946403
   0.48426383  0.41968097  0.39377927
   0.60271020  0.38827197  0.46212607
   0.56042073  0.34239000  0.45878610
   0.58205727  0.36877283  0.41180557
   0.58781553  0.44133860  0.40633750
   0.53757587  0.47111760  0.40621987
   0.56914873  0.47090157  0.45661440
   0.38584683  0.40695407  0.46903570
   0.42917430  0.43853727  0.44600373
   0.42220707  0.37976983  0.43352020
   0.43774513  0.32705527  0.52700193
   0.48830877  0.33240667  0.49193933
   0.43490970  0.32897390  0.46867480
   0.40675337  0.37360173  0.55414213
   0.43841737  0.42492227  0.56574093
   0.39178083  0.42442507  0.53141033
   0.57491527  0.49092417  0.61177963
   0.53861983  0.44691217  0.62657957
   0.59331630  0.44925153  0.64869930
   0.63479140  0.40154577  0.62925493
   0.66383563  0.43056667  0.58858800
   0.64161273  0.37941940  0.57153583
   0.64009317  0.47751937  0.55842327
   0.58694443  0.49335460  0.54044317
   0.61789803  0.44627330  0.51414697
   0.55037180  0.31832233  0.65051333
   0.59518260  0.33382600  0.61658333
   0.56396330  0.37511837  0.65138443
   0.48814033  0.29131727  0.57675240
   0.54081163  0.27834937  0.59814057
   0.53953820  0.29903850  0.54311647
   0.48879027  0.34368773  0.65187650
   0.45859170  0.34069000  0.60291783
   0.47881427  0.39458187  0.62628317
   0.37108547  0.57504393  0.34355437
   0.35150433  0.55825010  0.39596100
   0.38333897  0.52012893  0.35855487
   0.38803790  0.63389933  0.37412907
   0.44458320  0.63236840  0.35568943
   0.43078550  0.64032333  0.41397207
   0.44691797  0.51607367  0.34934470
   0.46160180  0.57112807  0.33068700
   0.48826750  0.54558197  0.37981053
   0.47538617  0.51676770  0.45673163
   0.50717210  0.55698230  0.55493820
   0.48669337  0.48442147  0.55816743
   0.50096243  0.47738983  0.51480873
   0.43764297  0.55688093  0.44891667
   0.55069700  0.60626210  0.49758333
   0.50759637  0.41897057  0.49991197
   0.55128387  0.38925917  0.55241373
 
 position of ions in cartesian coordinates  (Angst):
  10.77119100 15.15493500 13.79718500
  11.50244200 16.34296600 14.33649700
  11.71111200 16.11372500 15.83033400
  10.60876800 17.59788800 14.27167000
  15.35005900 15.46134500 14.64534500
  15.56874600 16.68221800 15.40465200
  16.02423000 19.63552500 15.90749300
  15.08218900 19.24777800 17.06332400
  15.37607700 20.77855200 15.20696100
  17.23179700 20.26252100 16.66392700
  16.88884400 18.48327200 13.19439400
  17.31796400 17.22867900 12.43119200
  15.97511000 19.28192900 12.34691600
  18.22674700 19.29907900 13.16738400
  14.68128200 15.65022600 17.38081300
  14.22090200 15.76855500 18.80950500
  16.05810800 12.30729600 13.38499000
  15.20281600 11.82892700 12.23718600
  17.17426900 11.23355100 13.44360400
  16.78647300 13.51677400 12.86347600
  13.51522500 11.82078200 14.99774200
  12.68367000 12.19235700 13.80793800
  13.62067900 10.28162300 14.93203800
  12.69284400 12.14744100 16.20952500
  17.72772400 12.91911000 17.32982200
  17.18047500 13.61620600 18.52623000
  19.02340800 12.22691500 17.80537100
  18.23244800 13.91771700 16.32008200
  15.83053400 10.52929600 17.78811700
  16.92446400 10.39926800 18.88205100
  15.70982300  9.07600200 17.28691200
  14.60927200 10.81691700 18.53545400
  12.70882600 17.15075400 11.70340200
  11.39071400 16.62070100 11.21785600
  12.65982100 18.65076300 11.50260600
  13.74479500 16.47915800 10.80793000
  13.62087000 18.17905800 14.19641700
  18.12464300 17.81602300 15.59103000
  13.21198100 16.73982300 18.81043900
  13.75005400 14.55149500 19.19932800
  15.22130600 16.26710700 19.62034100
  17.67651900 10.61281900 15.81615400
  10.67535900 14.33386100 14.56982500
   9.67471500 15.43198800 13.65312000
  11.18878700 14.69616400 12.91086700
  10.70273900 16.27314100 16.32019600
  12.34281100 16.90448500 16.25109400
  11.97546900 15.08766800 16.05095000
   9.56540200 17.30376000 14.00194500
  10.52868000 18.10307800 15.25395700
  11.02412600 18.35775600 13.58076600
  15.60704700 18.71093200 17.85630600
  14.14870800 18.83342700 16.70851600
  14.81447800 20.24812600 17.51977900
  16.00857200 21.29048400 14.45373200
  14.32970800 20.61750800 14.91642200
  15.28352900 21.58287600 16.02002600
  16.80721200 20.95210300 17.42131100
  17.81026000 19.45654700 17.15972100
  17.82168000 20.85053200 15.96116800
  17.23188300 17.47407000 11.35315800
  18.37338300 16.94151900 12.66988000
  16.68845200 16.37855200 12.64288500
  15.18659400 19.77687500 12.87982000
  16.53186500 20.01298000 11.66749500
  15.52483700 18.59019800 11.57086700
  18.00714600 20.34288900 13.46201200
  18.58777600 19.33552200 12.11545100
  18.96833800 18.79275300 13.78417500
  14.84225600 10.81519300 12.32706500
  15.96126500 11.73144200 11.38392100
  14.52791500 12.59042900 11.81337800
  18.08130600 11.64815900 13.86378200
  16.81262200 10.27170000 13.76358300
  17.46171800 11.06318500 12.35416700
  17.63446600 13.24015800 12.19012500
  16.12727600 14.13352800 12.18659600
  17.07446200 14.12704700 13.69843200
  11.57540500 12.20862200 14.07107100
  12.87522900 13.15611800 13.38011200
  12.66621200 11.39309500 13.00560600
  13.13235400  9.81165800 15.81005800
  14.64926300  9.97220000 14.75818000
  13.04729100  9.86921700 14.06024400
  12.20260100 11.20805200 16.62426400
  13.15252100 12.74766800 16.97222800
  11.75342500 12.73275200 15.94231000
  17.24745800 14.72772500 18.35338900
  16.15859500 13.40736500 18.79738700
  17.79948900 13.47754600 19.46097900
  19.04374200 12.04637300 18.87764800
  19.91506900 12.91700000 17.65764000
  19.24838200 11.38258200 17.14607500
  19.20279500 14.32558100 16.75269800
  17.60833300 14.80063800 16.21329500
  18.53694100 13.38819900 15.42440900
  16.51115400  9.54967000 19.51540000
  17.85547800 10.01478000 18.49750000
  16.91889900 11.25355100 19.54153300
  14.64421000  8.73951800 17.30257200
  16.22434900  8.35048100 17.94421700
  16.18614600  8.97115500 16.29349400
  14.66370800 10.31063200 19.55629500
  13.75775100 10.22070000 18.08753500
  14.36442800 11.83745600 18.78849500
  11.13256400 17.25131800 10.30663100
  10.54513000 16.74750300 11.87883000
  11.50016900 15.60386800 10.75664600
  11.64113700 19.01698000 11.22387200
  13.33749600 18.97105200 10.67068300
  12.92356500 19.20970000 12.41916200
  13.40753900 15.48221000 10.48034100
  13.84805400 17.13384200  9.92061000
  14.64802500 16.36745900 11.39431600
  14.26158500 15.50303100 13.70194900
  15.21516300 16.70946900 16.64814600
  14.60080100 14.53264400 16.74502300
  15.02887300 14.32169500 15.44426200
  13.12928900 16.70642800 13.46750000
  16.52091000 18.18786300 14.92750000
  15.22789100 12.56911700 14.99735900
  16.53851600 11.67777500 16.57241200
 


--------------------------------------------------------------------------------------------------------


 use seriel FFT for wavefunctions x direction half grid
 k-point  1 :   0.0000 0.0000 0.0000  plane waves:  342683

 maximum and minimum number of plane-waves per node :    342683   342683

 maximum number of plane-waves:    342683
 maximum index in each direction: 
   IXMAX=   54   IYMAX=   54   IZMAX=   54
   IXMIN=    0   IYMIN=  -54   IZMIN=  -54

 WARNING: aliasing errors must be expected set NGX to 218 to avoid them
 WARNING: aliasing errors must be expected set NGY to 218 to avoid them
 WARNING: aliasing errors must be expected set NGZ to 218 to avoid them
 aliasing errors are usually negligible using standard VASP settings
 and one can safely disregard these warnings

 serial   3D FFT for wavefunctions
 parallel 3D FFT for charge:
    minimum data exchange during FFTs selected (reduces bandwidth)


 FFT grid for exact exchange (Hartree Fock) 
  NGX =112; NGY =112; NGZ =112

 use seriel FFT for wavefunctions x direction half grid
 
 Radii for the augmentation spheres in the non-local exchange
 for species   1 augmentation radius   0.944 (default was   0.699)
       energy cutoff for augmentation   2000.0
 for species   2 augmentation radius   0.968 (default was   0.717)
       energy cutoff for augmentation   2000.0
 for species   3 augmentation radius   0.702 (default was   0.520)
       energy cutoff for augmentation   2000.0
 for species   4 augmentation radius   0.957 (default was   0.709)
       energy cutoff for augmentation   2000.0
 for species   5 augmentation radius   1.335 (default was   0.989)
       energy cutoff for augmentation   2000.0
 Maximum index for augmentation-charges in exchange          524
  SETUP_FOCK is finished

 total amount of memory used by VASP on root node  2974048. kBytes
========================================================================

   base      :      30000. kBytes
   nonl-proj :     778578. kBytes
   fftplans  :     338850. kBytes
   grid      :     952390. kBytes
   one-center:        187. kBytes
   HF        :         23. kBytes
   nonlr-proj:       1266. kBytes
   wavefun   :     872754. kBytes
 
     INWAV:  cpu time    1.6257: real time    6.2139
 Broyden mixing: mesh for mixing (old mesh)
   NGX =109   NGY =109   NGZ =109
  (NGX  =336   NGY  =336   NGZ  =336)
  gives a total of ****** points

 charge density for first step will be calculated from the start-wavefunctions


--------------------------------------------------------------------------------------------------------


 Maximum index for augmentation-charges         1420 (set IRDMAX)


--------------------------------------------------------------------------------------------------------


 initial charge from wavefunction
 FEWALD executed in parallel
    FEWALD:  cpu time    0.0092: real time    0.0092


----------------------------------------- Iteration    1(   1)  ---------------------------------------


    POTLOK:  cpu time    3.4006: real time    3.4101
    SETDIJ:  cpu time    0.8099: real time    0.8119
    TRIAL :  cpu time  424.2020: real time  425.5331
    CORREC:  cpu time  372.3203: real time  373.4815
    CHARGE:  cpu time    3.4649: real time    3.4752
    --------------------------------------------
      LOOP:  cpu time  804.2870: real time  806.8022

 eigenvalue-minimisations  :     0
 total energy-change (2. order) :-0.8103977E+03  (-0.6799052E+00)
 number of electron     294.0000015 magnetization 
 augmentation part       12.6202856 magnetization 

 Free energy of the ion-electron system (eV)
  ---------------------------------------------------
  alpha Z        PSCENC =        12.90470131
  Ewald energy   TEWEN  =     67974.12670626
  -Hartree energ DENC   =    -77610.09998200
  -exchange      EXHF   =       812.05736947
  -V(xc)+E(xc)   XCENC  =       749.93743946
  PAW double counting   =     24490.43053307   -24479.41700816
  entropy T*S    EENTRO =        -0.00000000
  eigenvalues    EBANDS =     -4221.75406094
  atomic energy  EATOM  =     11461.41663508
  ---------------------------------------------------
  free energy    TOTEN  =      -810.39766645 eV

  energy without entropy =     -810.39766645  energy(sigma->0) =     -810.39766645
  exchange ACFDT corr.  =        -0.00000000  see jH, gK, PRB 81, 115126


--------------------------------------------------------------------------------------------------------




----------------------------------------- Iteration    1(   2)  ---------------------------------------


    POTLOK:  cpu time    3.3879: real time    3.3973
    SETDIJ:  cpu time    0.8088: real time    0.8107
    TRIAL :  cpu time  423.0198: real time  424.3577
    CORREC:  cpu time  373.3193: real time  374.4929
    CHARGE:  cpu time    3.4742: real time    3.4842
    --------------------------------------------
      LOOP:  cpu time  804.0103: real time  806.5435

 eigenvalue-minimisations  :     0
 total energy-change (2. order) :-0.6873720E+00  (-0.2005555E+00)
 number of electron     294.0000015 magnetization 
 augmentation part       12.5721373 magnetization 

 Free energy of the ion-electron system (eV)
  ---------------------------------------------------
  alpha Z        PSCENC =        12.90470131
  Ewald energy   TEWEN  =     67974.12670626
  -Hartree energ DENC   =    -77645.31531271
  -exchange      EXHF   =       814.06045537
  -V(xc)+E(xc)   XCENC  =       750.96308461
  PAW double counting   =     26402.91233597   -26391.58185552
  entropy T*S    EENTRO =        -0.00000000
  eigenvalues    EBANDS =     -4190.57178878
  atomic energy  EATOM  =     11461.41663508
  ---------------------------------------------------
  free energy    TOTEN  =      -811.08503841 eV

  energy without entropy =     -811.08503841  energy(sigma->0) =     -811.08503841
  exchange ACFDT corr.  =        -0.00000000  see jH, gK, PRB 81, 115126


--------------------------------------------------------------------------------------------------------




----------------------------------------- Iteration    1(   3)  ---------------------------------------


    POTLOK:  cpu time    3.4072: real time    3.4167
    SETDIJ:  cpu time    0.8087: real time    0.8106
    TRIAL :  cpu time  422.8410: real time  424.1692
    CORREC:  cpu time  373.1393: real time  374.3012
    CHARGE:  cpu time    3.5319: real time    3.5416
    --------------------------------------------
      LOOP:  cpu time  803.7285: real time  806.2409

 eigenvalue-minimisations  :     0
 total energy-change (2. order) :-0.2005515E+00  (-0.6163260E-01)
 number of electron     294.0000015 magnetization 
 augmentation part       12.5553823 magnetization 

 Free energy of the ion-electron system (eV)
  ---------------------------------------------------
  alpha Z        PSCENC =        12.90470131
  Ewald energy   TEWEN  =     67974.12670626
  -Hartree energ DENC   =    -77620.68236765
  -exchange      EXHF   =       813.58202716
  -V(xc)+E(xc)   XCENC  =       750.18258055
  PAW double counting   =     27440.74033321   -27428.95585663
  entropy T*S    EENTRO =        -0.00000000
  eigenvalues    EBANDS =     -4214.60034920
  atomic energy  EATOM  =     11461.41663508
  ---------------------------------------------------
  free energy    TOTEN  =      -811.28558991 eV

  energy without entropy =     -811.28558991  energy(sigma->0) =     -811.28558991
  exchange ACFDT corr.  =         0.00000000  see jH, gK, PRB 81, 115126


--------------------------------------------------------------------------------------------------------




----------------------------------------- Iteration    1(   4)  ---------------------------------------


    POTLOK:  cpu time    3.3715: real time    3.3808
    SETDIJ:  cpu time    0.8087: real time    0.8109
    TRIAL :  cpu time  422.1061: real time  423.4342
    CORREC:  cpu time  373.0273: real time  374.1867
    CHARGE:  cpu time    3.4404: real time    3.4503
    --------------------------------------------
      LOOP:  cpu time  802.7543: real time  805.2637

 eigenvalue-minimisations  :     0
 total energy-change (2. order) :-0.6167479E-01  (-0.2737950E-01)
 number of electron     294.0000015 magnetization 
 augmentation part       12.5694063 magnetization 

 Free energy of the ion-electron system (eV)
  ---------------------------------------------------
  alpha Z        PSCENC =        12.90470131
  Ewald energy   TEWEN  =     67974.12670626
  -Hartree energ DENC   =    -77619.59394749
  -exchange      EXHF   =       813.80712906
  -V(xc)+E(xc)   XCENC  =       750.24644839
  PAW double counting   =     28005.73543895   -27993.71328952
  entropy T*S    EENTRO =        -0.00000000
  eigenvalues    EBANDS =     -4216.27708674
  atomic energy  EATOM  =     11461.41663508
  ---------------------------------------------------
  free energy    TOTEN  =      -811.34726471 eV

  energy without entropy =     -811.34726471  energy(sigma->0) =     -811.34726471
  exchange ACFDT corr.  =        -0.00000000  see jH, gK, PRB 81, 115126


--------------------------------------------------------------------------------------------------------




----------------------------------------- Iteration    1(   5)  ---------------------------------------


    POTLOK:  cpu time    3.4226: real time    3.4321
    SETDIJ:  cpu time    0.8087: real time    0.8106
    TRIAL :  cpu time  422.9131: real time  424.2501
    CORREC:  cpu time  373.3331: real time  374.4941
    CHARGE:  cpu time    3.4798: real time    3.4912
    --------------------------------------------
      LOOP:  cpu time  803.9576: real time  806.4797

 eigenvalue-minimisations  :     0
 total energy-change (2. order) :-0.2741047E-01  (-0.1179652E-01)
 number of electron     294.0000015 magnetization 
 augmentation part       12.5767866 magnetization 

 Free energy of the ion-electron system (eV)
  ---------------------------------------------------
  alpha Z        PSCENC =        12.90470131
  Ewald energy   TEWEN  =     67974.12670626
  -Hartree energ DENC   =    -77629.56866542
  -exchange      EXHF   =       814.23157622
  -V(xc)+E(xc)   XCENC  =       750.57237727
  PAW double counting   =     28313.90517645   -28301.93626672
  entropy T*S    EENTRO =        -0.00000000
  eigenvalues    EBANDS =     -4207.02691562
  atomic energy  EATOM  =     11461.41663508
  ---------------------------------------------------
  free energy    TOTEN  =      -811.37467517 eV

  energy without entropy =     -811.37467517  energy(sigma->0) =     -811.37467517
  exchange ACFDT corr.  =        -0.00000000  see jH, gK, PRB 81, 115126


--------------------------------------------------------------------------------------------------------




----------------------------------------- Iteration    1(   6)  ---------------------------------------


    POTLOK:  cpu time    3.3902: real time    3.3996
    SETDIJ:  cpu time    0.8087: real time    0.8109
    TRIAL :  cpu time  423.5380: real time  424.8623
    CORREC:  cpu time  372.0836: real time  373.1973
    CHARGE:  cpu time    3.4932: real time    3.5024
    --------------------------------------------
      LOOP:  cpu time  803.3141: real time  805.7740

 eigenvalue-minimisations  :     0
 total energy-change (2. order) :-0.1180841E-01  (-0.5958122E-02)
 number of electron     294.0000015 magnetization 
 augmentation part       12.5762872 magnetization 

 Free energy of the ion-electron system (eV)
  ---------------------------------------------------
  alpha Z        PSCENC =        12.90470131
  Ewald energy   TEWEN  =     67974.12670626
  -Hartree energ DENC   =    -77631.56251906
  -exchange      EXHF   =       814.33976380
  -V(xc)+E(xc)   XCENC  =       750.64101705
  PAW double counting   =     28407.68783378   -28395.78895355
  entropy T*S    EENTRO =        -0.00000000
  eigenvalues    EBANDS =     -4205.15166825
  atomic energy  EATOM  =     11461.41663508
  ---------------------------------------------------
  free energy    TOTEN  =      -811.38648358 eV

  energy without entropy =     -811.38648358  energy(sigma->0) =     -811.38648358
  exchange ACFDT corr.  =         0.00000000  see jH, gK, PRB 81, 115126


--------------------------------------------------------------------------------------------------------




----------------------------------------- Iteration    1(   7)  ---------------------------------------


    POTLOK:  cpu time    3.3836: real time    3.3933
    SETDIJ:  cpu time    0.8088: real time    0.8105
    TRIAL :  cpu time  423.0385: real time  424.2922
    CORREC:  cpu time  372.8661: real time  374.0148
    CHARGE:  cpu time    3.4714: real time    3.4814
    --------------------------------------------
      LOOP:  cpu time  803.5688: real time  805.9937

 eigenvalue-minimisations  :     0
 total energy-change (2. order) :-0.5964431E-02  (-0.2392958E-02)
 number of electron     294.0000015 magnetization 
 augmentation part       12.5783813 magnetization 

 Free energy of the ion-electron system (eV)
  ---------------------------------------------------
  alpha Z        PSCENC =        12.90470131
  Ewald energy   TEWEN  =     67974.12670626
  -Hartree energ DENC   =    -77628.81706227
  -exchange      EXHF   =       814.31186262
  -V(xc)+E(xc)   XCENC  =       750.59852059
  PAW double counting   =     28382.12547221   -28370.23541033
  entropy T*S    EENTRO =        -0.00000000
  eigenvalues    EBANDS =     -4207.82387348
  atomic energy  EATOM  =     11461.41663508
  ---------------------------------------------------
  free energy    TOTEN  =      -811.39244801 eV

  energy without entropy =     -811.39244801  energy(sigma->0) =     -811.39244801
  exchange ACFDT corr.  =         0.00000000  see jH, gK, PRB 81, 115126


--------------------------------------------------------------------------------------------------------




----------------------------------------- Iteration    1(   8)  ---------------------------------------


    POTLOK:  cpu time    3.3787: real time    3.3879
    SETDIJ:  cpu time    0.8087: real time    0.8105
    TRIAL :  cpu time  422.8125: real time  424.1289
    CORREC:  cpu time  373.0775: real time  374.2231
    CHARGE:  cpu time    3.4651: real time    3.4751
    --------------------------------------------
      LOOP:  cpu time  803.5429: real time  806.0263

 eigenvalue-minimisations  :     0
 total energy-change (2. order) :-0.2395189E-02  (-0.8584686E-03)
 number of electron     294.0000015 magnetization 
 augmentation part       12.5785259 magnetization 

 Free energy of the ion-electron system (eV)
  ---------------------------------------------------
  alpha Z        PSCENC =        12.90470131
  Ewald energy   TEWEN  =     67974.12670626
  -Hartree energ DENC   =    -77629.51262198
  -exchange      EXHF   =       814.34597885
  -V(xc)+E(xc)   XCENC  =       750.62598485
  PAW double counting   =     28318.53125310   -28306.65875081
  entropy T*S    EENTRO =        -0.00000000
  eigenvalues    EBANDS =     -4207.17472985
  atomic energy  EATOM  =     11461.41663508
  ---------------------------------------------------
  free energy    TOTEN  =      -811.39484320 eV

  energy without entropy =     -811.39484320  energy(sigma->0) =     -811.39484320
  exchange ACFDT corr.  =         0.00000000  see jH, gK, PRB 81, 115126


--------------------------------------------------------------------------------------------------------




----------------------------------------- Iteration    1(   9)  ---------------------------------------


    POTLOK:  cpu time    3.3799: real time    3.3891
    SETDIJ:  cpu time    0.8089: real time    0.8107
    TRIAL :  cpu time  424.4423: real time  425.7607
    CORREC:  cpu time  371.8805: real time  373.0447
    CHARGE:  cpu time    3.4651: real time    3.4751
    --------------------------------------------
      LOOP:  cpu time  803.9771: real time  806.4820

 eigenvalue-minimisations  :     0
 total energy-change (2. order) :-0.8588745E-03  (-0.3412856E-03)
 number of electron     294.0000015 magnetization 
 augmentation part       12.5784141 magnetization 

 Free energy of the ion-electron system (eV)
  ---------------------------------------------------
  alpha Z        PSCENC =        12.90470131
  Ewald energy   TEWEN  =     67974.12670626
  -Hartree energ DENC   =    -77630.25789167
  -exchange      EXHF   =       814.35502485
  -V(xc)+E(xc)   XCENC  =       750.63296573
  PAW double counting   =     28272.63306921   -28260.76484956
  entropy T*S    EENTRO =        -0.00000000
  eigenvalues    EBANDS =     -4206.44206329
  atomic energy  EATOM  =     11461.41663508
  ---------------------------------------------------
  free energy    TOTEN  =      -811.39570207 eV

  energy without entropy =     -811.39570207  energy(sigma->0) =     -811.39570207
  exchange ACFDT corr.  =         0.00000000  see jH, gK, PRB 81, 115126


--------------------------------------------------------------------------------------------------------




----------------------------------------- Iteration    1(  10)  ---------------------------------------


    POTLOK:  cpu time    3.3841: real time    3.3935
    SETDIJ:  cpu time    0.8087: real time    0.8106
    TRIAL :  cpu time  423.2915: real time  424.4401
    CORREC:  cpu time  373.1165: real time  374.0715
    CHARGE:  cpu time    3.4670: real time    3.4751
    --------------------------------------------
      LOOP:  cpu time  804.0681: real time  806.1923

 eigenvalue-minimisations  :     0
 total energy-change (2. order) :-0.3416696E-03  (-0.1338987E-03)
 number of electron     294.0000015 magnetization 
 augmentation part       12.5786527 magnetization 

 Free energy of the ion-electron system (eV)
  ---------------------------------------------------
  alpha Z        PSCENC =        12.90470131
  Ewald energy   TEWEN  =     67974.12670626
  -Hartree energ DENC   =    -77630.26229842
  -exchange      EXHF   =       814.35349347
  -V(xc)+E(xc)   XCENC  =       750.63039180
  PAW double counting   =     28245.32930869   -28233.45981202
  entropy T*S    EENTRO =        -0.00000000
  eigenvalues    EBANDS =     -4206.43516991
  atomic energy  EATOM  =     11461.41663508
  ---------------------------------------------------
  free energy    TOTEN  =      -811.39604374 eV

  energy without entropy =     -811.39604374  energy(sigma->0) =     -811.39604374
  exchange ACFDT corr.  =        -0.00000000  see jH, gK, PRB 81, 115126


--------------------------------------------------------------------------------------------------------




----------------------------------------- Iteration    1(  11)  ---------------------------------------


    POTLOK:  cpu time    3.3790: real time    3.3861
    SETDIJ:  cpu time    0.8091: real time    0.8105
    TRIAL :  cpu time  423.2573: real time  424.3571
    CORREC:  cpu time  373.2657: real time  374.2218
    CHARGE:  cpu time    3.4644: real time    3.4723
    --------------------------------------------
      LOOP:  cpu time  804.1757: real time  806.2492

 eigenvalue-minimisations  :     0
 total energy-change (2. order) :-0.1341597E-03  (-0.5605273E-04)
 number of electron     294.0000015 magnetization 
 augmentation part       12.5785669 magnetization 

 Free energy of the ion-electron system (eV)
  ---------------------------------------------------
  alpha Z        PSCENC =        12.90470131
  Ewald energy   TEWEN  =     67974.12670626
  -Hartree energ DENC   =    -77630.12875539
  -exchange      EXHF   =       814.35248442
  -V(xc)+E(xc)   XCENC  =       750.62870460
  PAW double counting   =     28234.54032728   -28222.67012837
  entropy T*S    EENTRO =        -0.00000000
  eigenvalues    EBANDS =     -4206.56685309
  atomic energy  EATOM  =     11461.41663508
  ---------------------------------------------------
  free energy    TOTEN  =      -811.39617790 eV

  energy without entropy =     -811.39617790  energy(sigma->0) =     -811.39617790
  exchange ACFDT corr.  =        -0.00000000  see jH, gK, PRB 81, 115126


--------------------------------------------------------------------------------------------------------




----------------------------------------- Iteration    1(  12)  ---------------------------------------


    POTLOK:  cpu time    3.3784: real time    3.3854
    SETDIJ:  cpu time    0.8078: real time    0.8090
    TRIAL :  cpu time  419.5250: real time  420.6165
    CORREC:  cpu time  341.2573: real time  342.0257
    CHARGE:  cpu time    3.1825: real time    3.1886
    --------------------------------------------
      LOOP:  cpu time  768.1513: real time  770.0269

 eigenvalue-minimisations  :     0
 total energy-change (2. order) :-0.5605824E-04  (-0.3010055E-04)
 number of electron     294.0000015 magnetization 
 augmentation part       12.5786825 magnetization 

 Free energy of the ion-electron system (eV)
  ---------------------------------------------------
  alpha Z        PSCENC =        12.90470131
  Ewald energy   TEWEN  =     67974.12670626
  -Hartree energ DENC   =    -77630.20310597
  -exchange      EXHF   =       814.35168901
  -V(xc)+E(xc)   XCENC  =       750.62737958
  PAW double counting   =     28232.58419226   -28220.71193624
  entropy T*S    EENTRO =        -0.00000000
  eigenvalues    EBANDS =     -4206.49249526
  atomic energy  EATOM  =     11461.41663508
  ---------------------------------------------------
  free energy    TOTEN  =      -811.39623396 eV

  energy without entropy =     -811.39623396  energy(sigma->0) =     -811.39623396
  exchange ACFDT corr.  =         0.00000000  see jH, gK, PRB 81, 115126


--------------------------------------------------------------------------------------------------------




----------------------------------------- Iteration    1(  13)  ---------------------------------------


    POTLOK:  cpu time    3.1637: real time    3.1705
    SETDIJ:  cpu time    0.8045: real time    0.8056
    TRIAL :  cpu time  383.3709: real time  384.2776
    CORREC:  cpu time  338.4831: real time  339.2325
    CHARGE:  cpu time    3.1825: real time    3.1885
    --------------------------------------------
      LOOP:  cpu time  729.0051: real time  730.6762

 eigenvalue-minimisations  :     0
 total energy-change (2. order) :-0.2991379E-04  (-0.1528090E-04)
 number of electron     294.0000015 magnetization 
 augmentation part       12.5787047 magnetization 

 Free energy of the ion-electron system (eV)
  ---------------------------------------------------
  alpha Z        PSCENC =        12.90470131
  Ewald energy   TEWEN  =     67974.12670626
  -Hartree energ DENC   =    -77630.29564751
  -exchange      EXHF   =       814.35388235
  -V(xc)+E(xc)   XCENC  =       750.62904539
  PAW double counting   =     28234.13933484   -28222.26711190
  entropy T*S    EENTRO =        -0.00000000
  eigenvalues    EBANDS =     -4206.40380970
  atomic energy  EATOM  =     11461.41663508
  ---------------------------------------------------
  free energy    TOTEN  =      -811.39626387 eV

  energy without entropy =     -811.39626387  energy(sigma->0) =     -811.39626387
  exchange ACFDT corr.  =         0.00000000  see jH, gK, PRB 81, 115126


--------------------------------------------------------------------------------------------------------




----------------------------------------- Iteration    1(  14)  ---------------------------------------


    POTLOK:  cpu time    3.1656: real time    3.1708
    SETDIJ:  cpu time    0.8057: real time    0.8067
    TRIAL :  cpu time  383.2076: real time  384.0827
    CORREC:  cpu time  338.2431: real time  339.0015
    CHARGE:  cpu time    3.1811: real time    3.1873
    --------------------------------------------
      LOOP:  cpu time  728.6034: real time  730.2507

 eigenvalue-minimisations  :     0
 total energy-change (2. order) :-0.1505037E-04  (-0.7015158E-05)
 number of electron     294.0000015 magnetization 
 augmentation part       12.5786177 magnetization 

 Free energy of the ion-electron system (eV)
  ---------------------------------------------------
  alpha Z        PSCENC =        12.90470131
  Ewald energy   TEWEN  =     67974.12670626
  -Hartree energ DENC   =    -77630.18411843
  -exchange      EXHF   =       814.35280975
  -V(xc)+E(xc)   XCENC  =       750.62788978
  PAW double counting   =     28236.19577707   -28224.32387932
  entropy T*S    EENTRO =        -0.00000000
  eigenvalues    EBANDS =     -4206.51280043
  atomic energy  EATOM  =     11461.41663508
  ---------------------------------------------------
  free energy    TOTEN  =      -811.39627892 eV

  energy without entropy =     -811.39627892  energy(sigma->0) =     -811.39627892
  exchange ACFDT corr.  =        -0.00000000  see jH, gK, PRB 81, 115126


--------------------------------------------------------------------------------------------------------




----------------------------------------- Iteration    1(  15)  ---------------------------------------


    POTLOK:  cpu time    3.1654: real time    3.1707
    SETDIJ:  cpu time    0.8055: real time    0.8065
    TRIAL :  cpu time  383.1857: real time  384.0574
    CORREC:  cpu time  338.0329: real time  338.7766
    CHARGE:  cpu time    3.1846: real time    3.1917
    --------------------------------------------
      LOOP:  cpu time  728.3744: real time  730.0045

 eigenvalue-minimisations  :     0
 total energy-change (2. order) :-0.6771554E-05  (-0.3684421E-05)
 number of electron     294.0000015 magnetization 
 augmentation part       12.5786080 magnetization 

 Free energy of the ion-electron system (eV)
  ---------------------------------------------------
  alpha Z        PSCENC =        12.90470131
  Ewald energy   TEWEN  =     67974.12670626
  -Hartree energ DENC   =    -77630.15306538
  -exchange      EXHF   =       814.35178775
  -V(xc)+E(xc)   XCENC  =       750.62685679
  PAW double counting   =     28237.40983888   -28225.53780996
  entropy T*S    EENTRO =        -0.00000000
  eigenvalues    EBANDS =     -4206.54193643
  atomic energy  EATOM  =     11461.41663508
  ---------------------------------------------------
  free energy    TOTEN  =      -811.39628570 eV

  energy without entropy =     -811.39628570  energy(sigma->0) =     -811.39628570
  exchange ACFDT corr.  =        -0.00000000  see jH, gK, PRB 81, 115126


--------------------------------------------------------------------------------------------------------




----------------------------------------- Iteration    1(  16)  ---------------------------------------


    POTLOK:  cpu time    3.1636: real time    3.1689
    SETDIJ:  cpu time    0.8048: real time    0.8058
    TRIAL :  cpu time  383.2801: real time  384.1562
    CORREC:  cpu time  338.2680: real time  339.0188
    CHARGE:  cpu time    3.1817: real time    3.1877
    --------------------------------------------
      LOOP:  cpu time  728.6986: real time  730.3390

 eigenvalue-minimisations  :     0
 total energy-change (2. order) :-0.3298233E-05  (-0.1686191E-05)
 number of electron     294.0000015 magnetization 
 augmentation part       12.5785919 magnetization 

 Free energy of the ion-electron system (eV)
  ---------------------------------------------------
  alpha Z        PSCENC =        12.90470131
  Ewald energy   TEWEN  =     67974.12670626
  -Hartree energ DENC   =    -77630.20229090
  -exchange      EXHF   =       814.35280721
  -V(xc)+E(xc)   XCENC  =       750.62774974
  PAW double counting   =     28237.98294199   -28226.11118299
  entropy T*S    EENTRO =        -0.00000000
  eigenvalues    EBANDS =     -4206.49435670
  atomic energy  EATOM  =     11461.41663508
  ---------------------------------------------------
  free energy    TOTEN  =      -811.39628899 eV

  energy without entropy =     -811.39628899  energy(sigma->0) =     -811.39628899
  exchange ACFDT corr.  =         0.00000000  see jH, gK, PRB 81, 115126


--------------------------------------------------------------------------------------------------------




----------------------------------------- Iteration    1(  17)  ---------------------------------------


    POTLOK:  cpu time    3.1648: real time    3.1700
    SETDIJ:  cpu time    0.8016: real time    0.8026
    TRIAL :  cpu time  383.6330: real time  384.5096
    CORREC:  cpu time  338.0181: real time  338.7680
    CHARGE:  cpu time    3.1846: real time    3.1907
    --------------------------------------------
      LOOP:  cpu time  728.8025: real time  730.4427

 eigenvalue-minimisations  :     0
 total energy-change (2. order) :-0.1494793E-05  (-0.8801649E-06)
 number of electron     294.0000015 magnetization 
 augmentation part       12.5785645 magnetization 

 Free energy of the ion-electron system (eV)
  ---------------------------------------------------
  alpha Z        PSCENC =        12.90470131
  Ewald energy   TEWEN  =     67974.12670626
  -Hartree energ DENC   =    -77630.18098271
  -exchange      EXHF   =       814.35269350
  -V(xc)+E(xc)   XCENC  =       750.62763435
  PAW double counting   =     28238.05786290   -28226.18621750
  entropy T*S    EENTRO =        -0.00000000
  eigenvalues    EBANDS =     -4206.51532368
  atomic energy  EATOM  =     11461.41663508
  ---------------------------------------------------
  free energy    TOTEN  =      -811.39629049 eV

  energy without entropy =     -811.39629049  energy(sigma->0) =     -811.39629049
  exchange ACFDT corr.  =         0.00000000  see jH, gK, PRB 81, 115126


--------------------------------------------------------------------------------------------------------




----------------------------------------- Iteration    1(  18)  ---------------------------------------


    POTLOK:  cpu time    3.1643: real time    3.1696
    SETDIJ:  cpu time    0.8020: real time    0.8030
    TRIAL :  cpu time  383.5188: real time  384.3972
    CORREC:  cpu time  338.3598: real time  339.1051
    CHARGE:  cpu time    3.1834: real time    3.1904
    --------------------------------------------
      LOOP:  cpu time  729.0285: real time  730.6669

 eigenvalue-minimisations  :     0
 total energy-change (2. order) :-0.7441595E-06  (-0.6297287E-06)
 number of electron     294.0000015 magnetization 
 augmentation part       12.5785701 magnetization 

 Free energy of the ion-electron system (eV)
  ---------------------------------------------------
  alpha Z        PSCENC =        12.90470131
  Ewald energy   TEWEN  =     67974.12670626
  -Hartree energ DENC   =    -77630.15334102
  -exchange      EXHF   =       814.35213208
  -V(xc)+E(xc)   XCENC  =       750.62712792
  PAW double counting   =     28237.99094736   -28226.11918895
  entropy T*S    EENTRO =        -0.00000000
  eigenvalues    EBANDS =     -4206.54201128
  atomic energy  EATOM  =     11461.41663508
  ---------------------------------------------------
  free energy    TOTEN  =      -811.39629123 eV

  energy without entropy =     -811.39629123  energy(sigma->0) =     -811.39629123
  exchange ACFDT corr.  =        -0.00000000  see jH, gK, PRB 81, 115126


--------------------------------------------------------------------------------------------------------


  average scaling for gradient   1.3713


 average (electrostatic) potential at core
  the test charge radii are     0.6991  0.7167  0.5201  0.7089  0.9892
  (the norm of the test charge is              1.0000)
       1 -53.9489       2 -54.1148       3 -53.8591       4 -54.0007       5 -57.7887
       6 -56.3317       7 -53.9058       8 -53.4547       9 -53.8104      10 -53.6316
      11 -54.0735      12 -53.9689      13 -53.8613      14 -53.8653      15 -57.2607
      16 -61.3475      17 -54.4054      18 -54.0541      19 -53.9418      20 -54.2053
      21 -54.2665      22 -53.8443      23 -54.1402      24 -53.8394      25 -54.0703
      26 -53.9401      27 -53.6785      28 -53.9586      29 -54.1255      30 -53.8937
      31 -53.8711      32 -53.9377      33 -53.9829      34 -53.8675      35 -53.8423
      36 -53.8754      37 -76.9385      38 -76.1363      39 -78.8405      40 -79.5143
      41 -79.1965      42 -76.4510      43 -36.6160      44 -36.6721      45 -37.0551
      46 -36.5438      47 -36.9020      48 -36.9724      49 -36.9238      50 -36.8108
      51 -36.8724      52 -36.4128      53 -36.5100      54 -36.0503      55 -36.7478
      56 -36.7267      57 -36.2923      58 -36.5241      59 -36.3788      60 -36.6474
      61 -36.9151      62 -36.7643      63 -37.0948      64 -36.9386      65 -36.6075
      66 -36.5485      67 -36.7574      68 -36.7520      69 -36.6791      70 -37.2393
      71 -36.5817      72 -36.9465      73 -36.9862      74 -37.0571      75 -36.5482
      76 -37.0536      77 -36.8223      78 -37.5523      79 -36.5166      80 -36.9404
      81 -36.5608      82 -37.0600      83 -37.3134      84 -36.9182      85 -36.6617
      86 -36.9085      87 -36.5173      88 -36.6623      89 -37.1555      90 -36.7070
      91 -36.8102      92 -36.4116      93 -36.5945      94 -36.5590      95 -37.1379
      96 -37.2078      97 -36.5031      98 -37.0060      99 -37.0676     100 -36.7643
     101 -36.7634     102 -36.6992     103 -36.5374     104 -36.6720     105 -37.0980
     106 -36.4707     107 -36.9990     108 -36.7253     109 -36.6850     110 -36.7292
     111 -36.6317     112 -36.9393     113 -36.8550     114 -37.0021     115 -67.5976
     116 -68.7348     117 -69.8389     118 -70.2099     119 -89.5627     120 -89.5486
     121 -89.5065     122 -89.3766
 
 
 
 E-fermi :  -6.1612     XC(G=0):  -0.3304     alpha+bet : -0.2700


 k-point     1 :       0.0000    0.0000    0.0000
  band No.  band energies     occupation 
      1     -36.6079      2.00000
      2     -34.8370      2.00000
      3     -34.2074      2.00000
      4     -32.2321      2.00000
      5     -31.7519      2.00000
      6     -31.2773      2.00000
      7     -29.6935      2.00000
      8     -26.5207      2.00000
      9     -25.5746      2.00000
     10     -23.3506      2.00000
     11     -23.2370      2.00000
     12     -23.1209      2.00000
     13     -22.9766      2.00000
     14     -22.8949      2.00000
     15     -22.8296      2.00000
     16     -22.7396      2.00000
     17     -22.6026      2.00000
     18     -22.5480      2.00000
     19     -21.0505      2.00000
     20     -19.7681      2.00000
     21     -19.4090      2.00000
     22     -19.3163      2.00000
     23     -19.2701      2.00000
     24     -19.2348      2.00000
     25     -19.2056      2.00000
     26     -19.1656      2.00000
     27     -19.1134      2.00000
     28     -19.0781      2.00000
     29     -18.9609      2.00000
     30     -18.9585      2.00000
     31     -18.9058      2.00000
     32     -18.8868      2.00000
     33     -18.8348      2.00000
     34     -18.7336      2.00000
     35     -18.6898      2.00000
     36     -18.6753      2.00000
     37     -18.5323      2.00000
     38     -17.5557      2.00000
     39     -17.0600      2.00000
     40     -16.8825      2.00000
     41     -16.6760      2.00000
     42     -16.4356      2.00000
     43     -16.3361      2.00000
     44     -16.2996      2.00000
     45     -15.9716      2.00000
     46     -15.4892      2.00000
     47     -15.2987      2.00000
     48     -15.1469      2.00000
     49     -15.1098      2.00000
     50     -14.8960      2.00000
     51     -14.4415      2.00000
     52     -14.1516      2.00000
     53     -13.9188      2.00000
     54     -13.7743      2.00000
     55     -13.5422      2.00000
     56     -13.5163      2.00000
     57     -13.4404      2.00000
     58     -13.2669      2.00000
     59     -13.1995      2.00000
     60     -13.1499      2.00000
     61     -13.0349      2.00000
     62     -12.9458      2.00000
     63     -12.8956      2.00000
     64     -12.8555      2.00000
     65     -12.7764      2.00000
     66     -12.7208      2.00000
     67     -12.7175      2.00000
     68     -12.5607      2.00000
     69     -12.5356      2.00000
     70     -12.5095      2.00000
     71     -12.4774      2.00000
     72     -12.4337      2.00000
     73     -12.4128      2.00000
     74     -12.3328      2.00000
     75     -12.2625      2.00000
     76     -12.1853      2.00000
     77     -12.1278      2.00000
     78     -12.0874      2.00000
     79     -12.0577      2.00000
     80     -12.0053      2.00000
     81     -11.9974      2.00000
     82     -11.9542      2.00000
     83     -11.8759      2.00000
     84     -11.8346      2.00000
     85     -11.8168      2.00000
     86     -11.7205      2.00000
     87     -11.6769      2.00000
     88     -11.5852      2.00000
     89     -11.4742      2.00000
     90     -11.3838      2.00000
     91     -11.3496      2.00000
     92     -11.2519      2.00000
     93     -11.0354      2.00000
     94     -11.0065      2.00000
     95     -10.9098      2.00000
     96     -10.8666      2.00000
     97     -10.8325      2.00000
     98     -10.8205      2.00000
     99     -10.7268      2.00000
    100     -10.6869      2.00000
    101     -10.5989      2.00000
    102     -10.5237      2.00000
    103     -10.4916      2.00000
    104     -10.3927      2.00000
    105     -10.3848      2.00000
    106     -10.2644      2.00000
    107     -10.2167      2.00000
    108     -10.1596      2.00000
    109     -10.1418      2.00000
    110      -9.9787      2.00000
    111      -9.9115      2.00000
    112      -9.8810      2.00000
    113      -9.8060      2.00000
    114      -9.7067      2.00000
    115      -9.6648      2.00000
    116      -9.6487      2.00000
    117      -9.6319      2.00000
    118      -9.5658      2.00000
    119      -9.5502      2.00000
    120      -9.5180      2.00000
    121      -9.4378      2.00000
    122      -9.4210      2.00000
    123      -9.3980      2.00000
    124      -9.2474      2.00000
    125      -9.2128      2.00000
    126      -9.1530      2.00000
    127      -9.1043      2.00000
    128      -9.0106      2.00000
    129      -8.9803      2.00000
    130      -8.9249      2.00000
    131      -8.8473      2.00000
    132      -8.8055      2.00000
    133      -8.7197      2.00000
    134      -8.5995      2.00000
    135      -8.5851      2.00000
    136      -8.4888      2.00000
    137      -8.4114      2.00000
    138      -8.2572      2.00000
    139      -8.1734      2.00000
    140      -8.0649      2.00000
    141      -7.9822      2.00000
    142      -7.7175      2.00000
    143      -7.6509      2.00000
    144      -7.5521      2.00000
    145      -7.2590      2.00000
    146      -6.7090      2.00000
    147      -6.4217      2.00000
    148      -3.4480      0.00000
    149      -2.4023      0.00000
    150      -0.3275      0.00000
    151      -0.1537      0.00000
    152      -0.1234      0.00000
    153       0.0535      0.00000
    154       0.1010      0.00000
    155       0.1102      0.00000
    156       0.2289      0.00000
    157       0.2318      0.00000
    158       0.2560      0.00000
    159       0.2818      0.00000
    160       0.3240      0.00000
    161       0.3462      0.00000
    162       0.3678      0.00000
    163       0.3875      0.00000
    164       0.3937      0.00000
    165       0.4062      0.00000
    166       0.4306      0.00000
    167       0.4435      0.00000
    168       0.4513      0.00000
    169       0.4569      0.00000
    170       0.4765      0.00000
    171       0.4785      0.00000
    172       0.5674      0.00000
    173       0.5796      0.00000
    174       0.5860      0.00000
    175       0.5899      0.00000
    176       0.5958      0.00000
    177       0.6017      0.00000
    178       0.6073      0.00000
    179       0.6151      0.00000
    180       0.6269      0.00000
    181       0.6431      0.00000
    182       0.6659      0.00000
    183       0.6789      0.00000
    184       0.7058      0.00000
    185       0.7452      0.00000
    186       0.7828      0.00000
    187       0.7894      0.00000
    188       0.8005      0.00000
    189       0.8210      0.00000
    190       0.8431      0.00000
    191       0.8637      0.00000
    192       0.8736      0.00000
    193       0.8794      0.00000
    194       0.8829      0.00000
    195       0.9042      0.00000
    196       0.9135      0.00000
    197       0.9235      0.00000
    198       0.9314      0.00000
    199       0.9492      0.00000
    200       0.9698      0.00000
    201       1.0176      0.00000
    202       1.0165      0.00000
    203       1.0687      0.00000
    204       1.0859      0.00000
    205       1.1195      0.00000
    206       1.1222      0.00000
    207       1.2782      0.00000
    208       1.2782      0.00000
    209       1.3648      0.00000
    210       1.3719      0.00000
    211       1.4455      0.00000
    212       1.5455      0.00000


--------------------------------------------------------------------------------------------------------


 soft charge-density along one line, spin component           1
         0         1         2         3         4         5         6         7         8         9
 total charge-density along one line
 
 pseudopotential strength for first ion, spin component:           1
  9.919  13.187  -0.001   0.001  -0.001   0.001  -0.002   0.001
 13.187  17.531  -0.001   0.001  -0.001   0.001  -0.002   0.001
 -0.001  -0.001  -4.154  -0.002   0.000   8.104   0.003  -0.001
  0.001   0.001  -0.002  -4.155   0.002   0.003   8.106  -0.003
 -0.001  -0.001   0.000   0.002  -4.153  -0.001  -0.003   8.102
  0.001   0.001   8.104   0.003  -0.001 -17.923  -0.006   0.002
 -0.002  -0.002   0.003   8.106  -0.003  -0.006 -17.927   0.005
  0.001   0.001  -0.001  -0.003   8.102   0.002   0.005 -17.919
 total augmentation occupancy for first ion, spin component:           1
  8.521  -3.829  -0.004   0.005   0.024   0.006   0.006   0.006
 -3.829   1.747   0.008  -0.012  -0.004  -0.006  -0.005  -0.004
 -0.004   0.008   1.622   0.050  -0.016   0.144   0.009   0.004
  0.005  -0.012   0.050   1.639  -0.024   0.009   0.139  -0.004
  0.024  -0.004  -0.016  -0.024   1.560   0.004  -0.004   0.137
  0.006  -0.006   0.144   0.009   0.004   0.013   0.001   0.001
  0.006  -0.005   0.009   0.139  -0.004   0.001   0.012  -0.000
  0.006  -0.004   0.004  -0.004   0.137   0.001  -0.000   0.012


------------------------ aborting loop because EDIFF is reached ----------------------------------------


    FORLOC:  cpu time    2.7306: real time    2.7356
    FORHF :  cpu time  319.1359: real time  319.8426
    FORNL :  cpu time   69.0353: real time   69.2052
    FORCOR:  cpu time    4.6555: real time    4.6628
    OFIELD:  cpu time    0.0069: real time    0.0069

  Hirshfeld charges:
            ion         q(e)     
   ------------------------------
      1     C          -0.105
      2     C          -0.068
      3     C          -0.122
      4     C          -0.104
      5     C           0.145
      6     C          -0.005
      7     C          -0.079
      8     C          -0.122
      9     C          -0.107
     10     C          -0.109
     11     C          -0.084
     12     C          -0.111
     13     C          -0.109
     14     C          -0.108
     15     C           0.074
     16     C           0.290
     17     C          -0.075
     18     C          -0.105
     19     C          -0.113
     20     C          -0.111
     21     C          -0.068
     22     C          -0.110
     23     C          -0.101
     24     C          -0.114
     25     C          -0.074
     26     C          -0.117
     27     C          -0.112
     28     C          -0.116
     29     C          -0.079
     30     C          -0.104
     31     C          -0.106
     32     C          -0.109
     33     C          -0.075
     34     C          -0.108
     35     C          -0.111
     36     C          -0.116
     37     F          -0.170
     38     F          -0.227
     39     F          -0.094
     40     F          -0.060
     41     F          -0.080
     42     F          -0.179
     43     H           0.033
     44     H           0.036
     45     H           0.036
     46     H           0.034
     47     H           0.025
     48     H           0.027
     49     H           0.040
     50     H           0.040
     51     H           0.034
     52     H           0.028
     53     H           0.023
     54     H           0.021
     55     H           0.038
     56     H           0.039
     57     H           0.030
     58     H           0.035
     59     H           0.035
     60     H           0.034
     61     H           0.041
     62     H           0.042
     63     H           0.018
     64     H           0.031
     65     H           0.040
     66     H           0.032
     67     H           0.034
     68     H           0.038
     69     H           0.032
     70     H           0.042
     71     H           0.030
     72     H           0.040
     73     H           0.035
     74     H           0.034
     75     H           0.031
     76     H           0.046
     77     H           0.034
     78     H           0.021
     79     H           0.033
     80     H           0.026
     81     H           0.031
     82     H           0.040
     83     H           0.032
     84     H           0.039
     85     H           0.036
     86     H           0.017
     87     H           0.029
     88     H           0.027
     89     H           0.020
     90     H           0.040
     91     H           0.036
     92     H           0.032
     93     H           0.029
     94     H           0.039
     95     H           0.023
     96     H           0.039
     97     H           0.031
     98     H           0.043
     99     H           0.039
    100     H           0.035
    101     H           0.038
    102     H           0.029
    103     H           0.034
    104     H           0.033
    105     H           0.034
    106     H           0.031
    107     H           0.035
    108     H           0.035
    109     H           0.036
    110     H           0.037
    111     H           0.026
    112     H           0.039
    113     H           0.036
    114     H           0.023
    115     N          -0.239
    116     N          -0.096
    117     N          -0.046
    118     N          -0.046
    119     Si          0.443
    120     Si          0.450
    121     Si          0.338
    122     Si          0.362

  Atomic reference data used in the T-S method for vdW correction:
            C6at              R0at           ALPHAat      REFSTATE
            (au)              (au)            (au)                
   ---------------------------------------------------------------
   C          46.600          3.590         12.000         0
   F           9.520          3.042          3.800         0
   H           6.500          3.099          4.500         0
   N          24.200          3.345          7.400         0
   Si        305.000          4.195         37.000         0

  Tkatchenko/Scheffler method for vdW energy calculation
  ---------------------------------------------------------------------------------------------

  Parameters of vdW forcefield:
            C6ts              R0ts           ALPHAts        RELVOL
            (au)              (au)            (au)                
   ---------------------------------------------------------------
   C          30.470          3.345          9.703          0.809
   C          35.245          3.427         10.436          0.870
   C          31.602          3.365          9.882          0.823
   C          29.813          3.333          9.598          0.800
   C          34.310          3.412         10.297          0.858
   C          34.660          3.418         10.349          0.862
   C          35.487          3.431         10.472          0.873
   C          31.888          3.370          9.927          0.827
   C          30.393          3.344          9.691          0.808
   C          29.924          3.335          9.616          0.801
   C          35.138          3.425         10.420          0.868
   C          30.336          3.343          9.682          0.807
   C          30.754          3.350          9.748          0.812
   C          30.002          3.336          9.629          0.802
   C          33.968          3.406         10.245          0.854
   C          33.560          3.399         10.184          0.849
   C          35.545          3.432         10.480          0.873
   C          30.290          3.342          9.675          0.806
   C          30.738          3.350          9.746          0.812
   C          31.078          3.356          9.800          0.817
   C          35.293          3.428         10.443          0.870
   C          30.990          3.354          9.786          0.815
   C          30.129          3.339          9.649          0.804
   C          31.157          3.357          9.812          0.818
   C          35.561          3.432         10.483          0.874
   C          31.375          3.361          9.846          0.821
   C          30.132          3.339          9.649          0.804
   C          30.980          3.354          9.784          0.815
   C          35.259          3.427         10.438          0.870
   C          30.395          3.344          9.691          0.808
   C          30.129          3.339          9.649          0.804
   C          30.484          3.345          9.706          0.809
   C          34.926          3.422         10.389          0.866
   C          30.172          3.340          9.656          0.805
   C          30.125          3.339          9.648          0.804
   C          30.011          3.337          9.630          0.803
   F           7.798          2.943          3.439          0.905
   F           8.368          2.978          3.563          0.938
   F           7.909          2.950          3.464          0.911
   F           7.637          2.933          3.404          0.896
   F           7.809          2.944          3.442          0.906
   F           7.959          2.953          3.474          0.914
   H           3.043          2.731          3.079          0.684
   H           2.785          2.691          2.946          0.655
   H           3.112          2.741          3.114          0.692
   H           2.911          2.711          3.012          0.669
   H           3.528          2.799          3.315          0.737
   H           3.479          2.793          3.292          0.732
   H           2.709          2.678          2.905          0.646
   H           2.633          2.666          2.864          0.636
   H           3.119          2.742          3.117          0.693
   H           3.319          2.771          3.215          0.715
   H           3.440          2.787          3.274          0.727
   H           2.955          2.718          3.034          0.674
   H           2.845          2.700          2.977          0.662
   H           2.874          2.705          2.992          0.665
   H           2.943          2.716          3.028          0.673
   H           2.778          2.690          2.942          0.654
   H           2.936          2.715          3.024          0.672
   H           2.773          2.689          2.939          0.653
   H           2.816          2.696          2.962          0.658
   H           2.753          2.686          2.929          0.651
   H           3.524          2.799          3.313          0.736
   H           3.348          2.775          3.230          0.718
   H           2.702          2.677          2.901          0.645
   H           3.300          2.768          3.206          0.713
   H           2.862          2.703          2.986          0.664
   H           2.664          2.671          2.881          0.640
   H           3.034          2.730          3.074          0.683
   H           2.822          2.697          2.965          0.659
   H           2.852          2.702          2.981          0.662
   H           2.931          2.714          3.022          0.672
   H           3.074          2.736          3.095          0.688
   H           3.010          2.726          3.062          0.681
   H           2.784          2.691          2.945          0.654
   H           2.693          2.676          2.896          0.644
   H           3.249          2.761          3.181          0.707
   H           3.554          2.803          3.328          0.739
   H           2.909          2.711          3.011          0.669
   H           3.472          2.792          3.289          0.731
   H           2.886          2.707          2.999          0.666
   H           2.927          2.713          3.020          0.671
   H           3.257          2.762          3.185          0.708
   H           2.669          2.672          2.883          0.641
   H           2.857          2.702          2.983          0.663
   H           3.627          2.812          3.361          0.747
   H           3.048          2.732          3.081          0.685
   H           3.292          2.767          3.203          0.712
   H           3.563          2.804          3.331          0.740
   H           2.750          2.685          2.927          0.650
   H           2.801          2.694          2.954          0.656
   H           2.709          2.679          2.905          0.646
   H           3.028          2.729          3.072          0.683
   H           2.852          2.702          2.981          0.662
   H           3.585          2.807          3.342          0.743
   H           3.067          2.734          3.091          0.687
   H           2.844          2.700          2.977          0.661
   H           2.944          2.716          3.028          0.673
   H           3.042          2.731          3.079          0.684
   H           2.845          2.700          2.977          0.662
   H           2.666          2.671          2.882          0.640
   H           3.074          2.735          3.094          0.688
   H           2.803          2.694          2.955          0.657
   H           3.043          2.731          3.079          0.684
   H           3.136          2.745          3.126          0.695
   H           2.728          2.682          2.915          0.648
   H           3.161          2.748          3.138          0.697
   H           2.723          2.681          2.913          0.647
   H           2.669          2.672          2.884          0.641
   H           2.786          2.691          2.946          0.655
   H           3.185          2.752          3.150          0.700
   H           2.718          2.680          2.910          0.647
   H           2.783          2.691          2.944          0.654
   H           3.450          2.789          3.279          0.729
   N          19.797          3.235          6.693          0.904
   N          18.898          3.210          6.539          0.884
   N          18.945          3.211          6.547          0.885
   N          19.061          3.214          6.567          0.887
   Si        209.227          3.940         30.645          0.828
   Si        207.919          3.936         30.549          0.826
   Si        215.782          3.960         31.121          0.841
   Si        211.452          3.947         30.808          0.833

  IVDW =   2
  VDW_RADIUS =    50.000 A
  VDW_IDAMPF =  0
  VDW_S6 =     1.000
  VDW_SR =     0.940
  VDW_D =    20.000
  LVDW_ONECELL = F F F
  LVDW_SAMETYPE T T T T T
  LVDW_EWALD = F

  Number of pair interactions contributing to vdW energy:  156548
  Edisp (eV):   -3.93851
    FORVDW:  cpu time   25.7594: real time   25.7911

 VOLUME and BASIS-vectors are now :
 -----------------------------------------------------------------------------
  energy-cutoff  :      500.00
  volume of cell :    27000.00
      direct lattice vectors                 reciprocal lattice vectors
    30.000000000  0.000000000  0.000000000     0.033333333  0.000000000  0.000000000
     0.000000000 30.000000000  0.000000000     0.000000000  0.033333333  0.000000000
     0.000000000  0.000000000 30.000000000     0.000000000  0.000000000  0.033333333

  length of vectors
    30.000000000 30.000000000 30.000000000     0.033333333  0.033333333  0.033333333


 FORCES acting on ions:
    Electron-Ion                     Ewald-Force                    Non-Local-Force
 -----------------------------------------------------------------------------------------------
   0.359E+03 0.135E+03 0.107E+03   -.360E+03 -.136E+03 -.107E+03   -.115E+01 -.100E+01 0.564E+00
   0.268E+03 -.436E+02 0.378E+02   -.266E+03 0.441E+02 -.384E+02   -.215E+01 -.115E+00 0.192E+01
   0.301E+03 -.336E+02 -.180E+03   -.301E+03 0.335E+02 0.180E+03   -.110E+01 0.715E+00 0.607E+00
   0.366E+03 -.220E+03 0.503E+01   -.366E+03 0.220E+03 -.498E+01   0.168E+00 0.998E+00 -.320E+00
   -.180E+03 -.532E+01 0.166E+03   0.178E+03 0.939E+01 -.168E+03   -.696E+01 -.404E+01 0.452E+00
   -.144E+03 -.149E+03 0.633E+02   0.148E+03 0.154E+03 -.686E+02   -.241E+01 -.574E+01 0.586E+01
   -.723E+02 -.257E+03 -.617E+02   0.731E+02 0.256E+03 0.617E+02   -.700E+00 0.192E+01 0.202E+01
   0.797E+02 -.262E+03 -.255E+03   -.801E+02 0.261E+03 0.255E+03   0.193E+00 0.233E+01 -.237E+00
   0.550E+02 -.402E+03 0.383E+02   -.555E+02 0.403E+03 -.384E+02   -.347E-01 0.169E+01 0.826E+00
   -.233E+03 -.301E+03 -.181E+03   0.234E+03 0.300E+03 0.181E+03   -.506E+00 -.488E-01 -.601E+00
   -.147E+03 -.154E+03 0.145E+03   0.147E+03 0.153E+03 -.144E+03   0.291E+01 0.542E+00 -.295E+01
   -.242E+03 0.235E+02 0.282E+03   0.243E+03 -.233E+02 -.282E+03   0.507E-01 -.607E+00 0.153E+00
   -.213E+02 -.284E+03 0.274E+03   0.202E+02 0.284E+03 -.275E+03   -.752E-01 -.629E+00 -.156E+01
   -.320E+03 -.241E+03 0.142E+03   0.320E+03 0.241E+03 -.142E+03   -.735E+00 0.568E+00 -.214E+00
   0.288E+02 -.754E+02 -.220E+03   -.286E+02 0.773E+02 0.221E+03   0.104E+01 -.126E+01 -.409E+01
   0.680E+02 -.513E+02 -.270E+03   -.655E+02 0.519E+02 0.261E+03   -.272E+01 0.676E+00 0.713E+01
   -.710E+02 0.158E+03 0.173E+03   0.704E+02 -.159E+03 -.172E+03   0.169E+01 -.390E+00 -.263E+01
   0.568E+02 0.215E+03 0.345E+03   -.573E+02 -.214E+03 -.346E+03   0.152E+01 -.138E+00 -.173E+01
   -.233E+03 0.270E+03 0.198E+03   0.234E+03 -.270E+03 -.199E+03   -.651E+00 0.593E+00 -.208E+01
   -.234E+03 0.949E+01 0.282E+03   0.234E+03 -.921E+01 -.284E+03   -.524E+00 0.895E+00 -.364E-01
   0.136E+03 0.202E+03 0.437E+02   -.134E+03 -.201E+03 -.438E+02   -.254E+01 -.193E+01 -.140E+00
   0.267E+03 0.170E+03 0.215E+03   -.268E+03 -.171E+03 -.216E+03   -.162E+01 -.264E+00 -.796E+00
   0.141E+03 0.378E+03 0.653E+02   -.142E+03 -.378E+03 -.648E+02   0.721E+00 -.829E+00 -.975E+00
   0.303E+03 0.169E+03 -.148E+03   -.303E+03 -.169E+03 0.149E+03   -.208E+01 0.246E+00 0.759E-01
   -.207E+03 0.781E+02 -.116E+03   0.206E+03 -.803E+02 0.115E+03   0.203E+01 0.170E+01 0.145E+01
   -.159E+03 -.131E+02 -.328E+03   0.160E+03 0.139E+02 0.328E+03   -.409E+00 0.158E+01 0.104E+01
   -.373E+03 0.125E+03 -.165E+03   0.373E+03 -.125E+03 0.165E+03   0.119E+01 0.566E+00 -.779E+00
   -.338E+03 -.540E+02 0.282E+02   0.339E+03 0.549E+02 -.274E+02   0.882E+00 0.527E-02 -.270E+00
   -.482E+01 0.208E+03 -.125E+03   0.557E+01 -.207E+03 0.123E+03   0.525E+00 -.255E+01 0.315E+01
   -.165E+03 0.217E+03 -.297E+03   0.165E+03 -.218E+03 0.297E+03   -.109E+01 -.924E+00 0.479E+00
   0.112E+02 0.398E+03 -.469E+02   -.114E+02 -.398E+03 0.464E+02   0.819E-01 -.475E+00 -.409E+00
   0.182E+03 0.174E+03 -.268E+03   -.184E+03 -.175E+03 0.268E+03   -.996E+00 -.993E+00 0.157E+01
   0.123E+03 -.746E+02 0.231E+03   -.122E+03 0.738E+02 -.228E+03   -.653E+00 0.791E-01 -.252E+01
   0.294E+03 0.140E+02 0.281E+03   -.294E+03 -.145E+02 -.282E+03   -.631E+00 0.432E+00 -.206E+01
   0.134E+03 -.294E+03 0.247E+03   -.134E+03 0.295E+03 -.247E+03   -.135E+00 0.933E+00 0.196E-01
   -.325E+02 0.317E+02 0.383E+03   0.325E+02 -.314E+02 -.384E+03   0.303E-01 0.820E-01 0.795E-01
   0.228E+03 -.508E+03 0.489E+02   -.219E+03 0.538E+03 -.341E+02   -.717E+01 -.264E+02 -.126E+02
   -.650E+03 -.141E+03 -.153E+03   0.680E+03 0.135E+03 0.165E+03   -.268E+02 0.503E+01 -.115E+02
   0.553E+03 -.435E+03 -.494E+03   -.590E+03 0.471E+03 0.494E+03   0.309E+02 -.310E+02 0.768E+00
   0.367E+03 0.345E+03 -.657E+03   -.387E+03 -.395E+03 0.673E+03   0.168E+02 0.430E+02 -.126E+02
   -.298E+03 -.278E+03 -.775E+03   0.337E+03 0.298E+03 0.806E+03   -.333E+02 -.177E+02 -.264E+02
   -.453E+03 0.516E+03 0.105E+03   0.476E+03 -.538E+03 -.120E+03   -.204E+02 0.188E+02 0.137E+02
   0.951E+02 0.646E+02 -.225E+02   -.952E+02 -.676E+02 0.251E+02   0.528E+00 0.355E+01 -.328E+01
   0.135E+03 0.957E+01 0.246E+02   -.138E+03 -.890E+01 -.255E+02   0.459E+01 -.110E+01 0.492E+00
   0.565E+02 0.557E+02 0.809E+02   -.545E+02 -.583E+02 -.860E+02   -.213E+01 0.245E+01 0.457E+01
   0.125E+03 -.166E+02 -.657E+02   -.128E+03 0.170E+02 0.676E+02   0.428E+01 -.700E+00 -.213E+01
   0.480E+02 -.685E+02 -.571E+02   -.447E+02 0.722E+02 0.595E+02   -.300E+01 -.398E+01 -.208E+01
   0.710E+02 0.526E+02 -.428E+02   -.691E+02 -.582E+02 0.442E+02   -.121E+01 0.536E+01 -.114E+01
   0.133E+03 -.228E+02 0.160E+02   -.137E+03 0.219E+02 -.172E+02   0.476E+01 0.131E+01 0.115E+01
   0.843E+02 -.780E+02 -.587E+02   -.845E+02 0.804E+02 0.631E+02   0.444E+00 -.244E+01 -.461E+01
   0.642E+02 -.946E+02 0.372E+02   -.628E+02 0.982E+02 -.403E+02   -.199E+01 -.363E+01 0.317E+01
   -.323E+02 -.413E+02 -.107E+03   0.346E+02 0.383E+02 0.111E+03   -.266E+01 0.268E+01 -.403E+01
   0.796E+02 -.580E+02 -.338E+02   -.849E+02 0.553E+02 0.321E+02   0.490E+01 0.209E+01 0.188E+01
   0.351E+02 -.110E+03 -.789E+02   -.362E+02 0.113E+03 0.807E+02   0.117E+01 -.421E+01 -.198E+01
   -.316E+02 -.115E+03 0.460E+02   0.342E+02 0.117E+03 -.497E+02   -.296E+01 -.253E+01 0.342E+01
   0.744E+02 -.876E+02 0.156E+02   -.794E+02 0.867E+02 -.174E+02   0.518E+01 0.722E+00 0.128E+01
   0.166E+02 -.125E+03 -.428E+02   -.170E+02 0.128E+03 0.453E+02   0.388E+00 -.327E+01 -.326E+01
   -.178E+02 -.102E+03 -.815E+02   0.161E+02 0.105E+03 0.849E+02   0.195E+01 -.322E+01 -.356E+01
   -.865E+02 -.252E+02 -.766E+02   0.893E+02 0.220E+02 0.787E+02   -.274E+01 0.390E+01 -.231E+01
   -.818E+02 -.100E+03 0.842E+01   0.853E+02 0.103E+03 -.119E+02   -.292E+01 -.298E+01 0.351E+01
   -.457E+02 -.142E+02 0.126E+03   0.456E+02 0.150E+02 -.131E+03   0.429E+00 -.115E+01 0.504E+01
   -.118E+03 0.167E+02 0.447E+02   0.122E+03 -.180E+02 -.438E+02   -.480E+01 0.132E+01 -.106E+01
   -.276E+02 0.362E+02 0.617E+02   0.239E+02 -.413E+02 -.607E+02   0.324E+01 0.445E+01 -.106E+01
   0.363E+02 -.102E+03 0.302E+02   -.412E+02 0.105E+03 -.273E+02   0.430E+01 -.264E+01 -.287E+01
   -.370E+02 -.946E+02 0.922E+02   0.388E+02 0.971E+02 -.941E+02   -.222E+01 -.299E+01 0.291E+01
   0.447E+01 -.241E+02 0.109E+03   -.650E+01 0.218E+02 -.111E+03   0.186E+01 0.292E+01 0.339E+01
   -.516E+02 -.115E+03 0.160E+02   0.510E+02 0.120E+03 -.145E+02   0.106E+01 -.494E+01 -.131E+01
   -.833E+02 -.480E+02 0.924E+02   0.849E+02 0.482E+02 -.969E+02   -.174E+01 -.208E+00 0.482E+01
   -.122E+03 -.220E+02 0.123E+01   0.126E+03 0.197E+02 0.218E+01   -.376E+01 0.267E+01 -.320E+01
   0.271E+02 0.111E+03 0.688E+02   -.297E+02 -.116E+03 -.682E+02   0.175E+01 0.533E+01 -.346E+00
   -.373E+02 0.493E+02 0.122E+03   0.396E+02 -.497E+02 -.125E+03   -.303E+01 0.405E+00 0.350E+01
   0.443E+02 0.680E+01 0.105E+03   -.480E+02 -.353E+01 -.107E+03   0.313E+01 -.371E+01 0.218E+01
   -.116E+03 0.262E+02 0.302E+02   0.121E+03 -.245E+02 -.273E+02   -.479E+01 -.217E+01 -.206E+01
   -.188E+02 0.122E+03 0.361E+02   0.172E+02 -.128E+03 -.338E+02   0.188E+01 0.516E+01 -.160E+01
   -.665E+02 0.660E+02 0.102E+03   0.675E+02 -.666E+02 -.106E+03   -.127E+01 0.789E+00 0.450E+01
   -.981E+02 0.199E+02 0.977E+02   0.102E+03 -.210E+02 -.100E+03   -.381E+01 0.118E+01 0.316E+01
   -.105E+02 -.141E+02 0.110E+03   0.801E+01 0.165E+02 -.112E+03   0.285E+01 -.270E+01 0.304E+01
   -.833E+02 -.192E+02 0.177E+02   0.858E+02 0.232E+02 -.130E+02   -.151E+01 -.320E+01 -.440E+01
   0.122E+03 0.455E+02 0.236E+02   -.125E+03 -.454E+02 -.226E+02   0.464E+01 -.683E-01 -.967E+00
   0.476E+02 -.267E+01 0.745E+02   -.464E+02 0.869E+01 -.773E+02   -.967E+00 -.521E+01 0.231E+01
   0.586E+02 0.834E+02 0.905E+02   -.583E+02 -.857E+02 -.935E+02   0.229E+00 0.345E+01 0.344E+01
   0.680E+02 0.105E+03 -.356E+02   -.696E+02 -.107E+03 0.395E+02   0.241E+01 0.221E+01 -.405E+01
   -.248E+02 0.105E+03 0.331E+02   0.302E+02 -.107E+03 -.337E+02   -.510E+01 0.159E+01 0.961E+00
   0.636E+02 0.102E+03 0.639E+02   -.658E+02 -.104E+03 -.673E+02   0.257E+01 0.192E+01 0.385E+01
   0.954E+02 0.864E+02 -.498E+02   -.968E+02 -.893E+02 0.516E+02   0.218E+01 0.388E+01 -.172E+01
   0.499E+02 0.176E+02 -.753E+02   -.471E+02 -.142E+02 0.801E+02   -.239E+01 -.337E+01 -.409E+01
   0.121E+03 0.145E+02 -.170E+02   -.124E+03 -.124E+02 0.160E+02   0.398E+01 -.236E+01 0.101E+01
   -.626E+02 -.587E+02 -.648E+02   0.627E+02 0.629E+02 0.644E+02   -.370E+00 -.486E+01 0.699E+00
   0.187E+02 0.247E+02 -.945E+02   -.247E+02 -.258E+02 0.961E+02   0.532E+01 0.100E+01 -.151E+01
   -.700E+02 0.212E+01 -.121E+03   0.722E+02 -.269E+01 0.124E+03   -.267E+01 0.481E+00 -.408E+01
   -.775E+02 0.331E+02 -.103E+03   0.776E+02 -.347E+02 0.108E+03   -.203E+00 0.787E+00 -.546E+01
   -.127E+03 -.131E+02 -.251E+02   0.130E+03 0.154E+02 0.246E+02   -.382E+01 -.278E+01 0.581E+00
   -.103E+03 0.748E+02 0.494E+01   0.105E+03 -.794E+02 -.785E+01   -.109E+01 0.414E+01 0.342E+01
   -.128E+03 -.345E+02 -.252E+02   0.132E+03 0.361E+02 0.265E+02   -.410E+01 -.172E+01 -.182E+01
   -.576E+02 -.466E+02 -.419E+01   0.541E+02 0.513E+02 0.314E+01   0.299E+01 -.460E+01 0.376E+00
   -.103E+03 0.245E+02 0.582E+02   0.105E+03 -.270E+02 -.635E+02   -.171E+01 0.275E+01 0.448E+01
   -.723E+01 0.925E+02 -.962E+02   0.608E+01 -.953E+02 0.986E+02   0.173E+01 0.358E+01 -.265E+01
   -.925E+02 0.811E+02 -.378E+02   0.981E+02 -.829E+02 0.358E+02   -.488E+01 0.219E+01 0.203E+01
   -.286E+02 0.309E+01 -.114E+03   0.292E+02 0.188E+01 0.118E+03   0.171E+00 -.440E+01 -.355E+01
   0.644E+02 0.104E+03 -.173E+02   -.686E+02 -.105E+03 0.169E+02   0.480E+01 0.161E+01 -.142E+00
   -.301E+02 0.119E+03 -.497E+02   0.325E+02 -.122E+03 0.527E+02   -.239E+01 0.352E+01 -.303E+01
   -.273E+02 0.104E+03 0.437E+02   0.293E+02 -.105E+03 -.482E+02   -.239E+01 0.471E+00 0.468E+01
   0.312E+02 0.658E+02 -.113E+03   -.310E+02 -.675E+02 0.117E+03   -.114E+00 0.207E+01 -.423E+01
   0.851E+02 0.813E+02 -.346E+02   -.884E+02 -.827E+02 0.330E+02   0.361E+01 0.270E+01 0.183E+01
   0.465E+02 -.243E+01 -.837E+02   -.482E+02 0.836E+01 0.849E+02   0.133E+01 -.526E+01 -.146E+01
   0.701E+02 -.365E+02 0.108E+03   -.711E+02 0.386E+02 -.111E+03   0.111E+01 -.261E+01 0.381E+01
   0.116E+03 -.150E+02 0.309E+02   -.121E+03 0.154E+02 -.273E+02   0.445E+01 -.717E+00 -.338E+01
   0.529E+02 0.617E+02 0.912E+02   -.529E+02 -.658E+02 -.926E+02   -.506E+00 0.445E+01 0.224E+01
   0.874E+02 -.789E+02 0.631E+02   -.915E+02 0.804E+02 -.642E+02   0.457E+01 -.176E+01 0.127E+01
   -.103E+02 -.738E+02 0.104E+03   0.130E+02 0.753E+02 -.108E+03   -.301E+01 -.149E+01 0.372E+01
   0.283E+02 -.106E+03 0.124E+02   -.269E+02 0.109E+03 -.840E+01   -.125E+01 -.267E+01 -.443E+01
   0.198E+02 0.645E+02 0.102E+03   -.212E+02 -.692E+02 -.104E+03   0.158E+01 0.477E+01 0.162E+01
   -.939E+01 -.353E+02 0.129E+03   0.103E+02 0.379E+02 -.134E+03   -.400E+00 -.310E+01 0.414E+01
   -.524E+02 0.808E+01 0.676E+02   0.579E+02 -.879E+01 -.649E+02   -.459E+01 0.644E+00 -.313E+01
   0.957E+02 0.757E+02 0.326E+03   -.105E+03 -.909E+02 -.332E+03   0.132E+02 0.139E+02 0.744E+01
   -.768E+02 -.266E+03 -.248E+03   0.808E+02 0.294E+03 0.266E+03   -.346E+01 -.251E+02 -.143E+02
   0.131E+03 0.193E+03 -.208E+03   -.143E+03 -.222E+03 0.224E+03   0.116E+02 0.241E+02 -.152E+02
   -.331E+02 0.179E+03 0.685E+02   0.302E+02 -.190E+03 -.785E+02   0.365E+01 0.105E+02 0.113E+02
   0.159E+03 -.451E+02 0.161E+03   -.163E+03 0.423E+02 -.164E+03   0.368E+01 0.505E+01 0.344E+01
   -.128E+03 -.166E+03 0.270E+02   0.125E+03 0.171E+03 -.297E+02   0.594E+01 -.482E+01 0.418E+01
   -.218E+02 0.184E+03 0.466E+02   0.217E+02 -.190E+03 -.481E+02   -.146E+01 0.651E+01 0.140E+01
   -.518E+02 0.139E+03 -.451E+02   0.499E+02 -.137E+03 0.491E+02   0.463E+01 -.341E+01 -.426E+01
 -----------------------------------------------------------------------------------------------
   0.171E+02 -.876E+01 0.599E+02   0.125E-11 -.313E-12 -.220E-12   -.112E+02 0.876E+01 -.491E+02
 
 
 POSITION                                       TOTAL-FORCE (eV/Angst)
 -----------------------------------------------------------------------------------
     10.77119     15.15493     13.79719        -2.209380     -1.563620      0.740587
     11.50244     16.34297     14.33650         0.064492      0.345335      1.471871
     11.71111     16.11372     15.83033        -1.411220      0.615915      0.633082
     10.60877     17.59789     14.27167        -0.139505      0.968152     -0.287222
     15.35006     15.46134     14.64534        -9.582012     -0.210412     -1.670921
     15.56875     16.68222     15.40465         1.117649     -1.110813      0.972248
     16.02423     19.63552     15.90749        -0.019084      0.670717      2.147431
     15.08219     19.24778     17.06332        -0.190253      2.251231      0.652475
     15.37608     20.77855     15.20696        -0.533549      2.480329      0.712393
     17.23180     20.26252     16.66393        -0.120573     -0.628247     -0.025470
     16.88884     18.48327     13.19439         2.886873      0.177109     -1.664334
     17.31796     17.22868     12.43119         0.588156     -0.399161     -0.203577
     15.97511     19.28193     12.34692        -1.147401     -0.069419     -2.917730
     18.22675     19.29908     13.16738        -0.286035      0.458148      0.064400
     14.68128     15.65023     17.38081         1.300396      0.550273     -4.283368
     14.22090     15.76856     18.80951        -0.395247      1.334539     -0.950503
     16.05811     12.30730     13.38499         1.188925     -0.747827     -1.884518
     15.20282     11.82893     12.23719         1.156415      0.474988     -2.480915
     17.17427     11.23355     13.44360         0.042313      0.336933     -2.332228
     16.78647     13.51677     12.86348        -0.565552      1.233960     -1.678893
     13.51523     11.82078     14.99774        -0.889663     -1.194835     -0.141426
     12.68367     12.19236     13.80794        -2.567133     -0.795617     -1.820936
     13.62068     10.28162     14.93204        -0.394027     -0.844535     -0.566333
     12.69284     12.14744     16.20953        -3.088978      0.216835      1.026362
     17.72772     12.91911     17.32982         1.157225     -0.337770      0.622811
     17.18047     13.61621     18.52623         0.298246      2.497776      1.740228
     19.02341     12.22692     17.80537         1.602447      0.316663     -0.768032
     18.23245     13.91772     16.32008         1.526625      0.879412      0.605150
     15.83053     10.52930     17.78812         1.288977     -2.010725      1.405979
     16.92446     10.39927     18.88205        -1.350472     -1.767896      0.953800
     15.70982      9.07600     17.28691        -0.181974     -0.807079     -0.927441
     14.60927     10.81692     18.53545        -2.782396     -1.449442      1.923023
     12.70883     17.15075     11.70340        -0.052602     -0.687573     -0.387196
     11.39071     16.62070     11.21786        -0.920799     -0.029833     -2.598090
     12.65982     18.65076     11.50261         0.071187      1.848297     -0.038112
     13.74479     16.47916     10.80793         0.088117      0.391837     -0.447986
     13.62087     18.17906     14.19642        -0.254716     -1.491314     -0.484454
     18.12464     17.81602     15.59103        -2.530613     -0.098566     -0.989938
     13.21198     16.73982     18.81044         1.016550     -1.630038      0.736721
     13.75005     14.55150     19.19933         0.477698      1.813648      0.479760
     15.22131     16.26711     19.62034        -1.519839     -1.205970     -0.704169
     17.67652     10.61282     15.81615        -1.359988      1.132566      1.219464
     10.67536     14.33386     14.56983         0.454245      0.748377     -0.774433
      9.67472     15.43199     13.65312         1.344649     -0.466470     -0.393607
     11.18879     14.69616     12.91087        -0.173268     -0.045482     -0.274857
     10.70274     16.27314     16.32020         0.914113     -0.291890     -0.288456
     12.34281     16.90448     16.25109         0.175240     -0.517668      0.198665
     11.97547     15.08767     16.05095         0.671446      0.027442      0.239320
      9.56540     17.30376     14.00195         0.821215      0.461108     -0.089580
     10.52868     18.10308     15.25396         0.229361     -0.224886     -0.436370
     11.02413     18.35776     13.58077        -0.726650     -0.224491      0.188630
     15.60705     18.71093     17.85631        -0.516024     -0.237671     -0.301311
     14.14871     18.83343     16.70852        -0.069471     -0.458490      0.289092
     14.81448     20.24813     17.51978         0.071529     -0.804974     -0.271137
     16.00857     21.29048     14.45373        -0.557986     -0.574692     -0.035111
     14.32971     20.61751     14.91642         0.420634     -0.131863     -0.499602
     15.28353     21.58288     16.02003        -0.002524     -0.793107     -0.964117
     16.80721     20.95210     17.42131         0.325515     -0.318612     -0.314672
     17.81026     19.45655     17.15972        -0.023531      0.822351     -0.274627
     17.82168     20.85053     15.96117         0.451925     -0.109258      0.201283
     17.23188     17.47407     11.35316         0.279497     -0.422875      0.455606
     18.37338     16.94152     12.66988        -0.855358      0.105548     -0.231533
     16.68845     16.37855     12.64289        -0.257157     -0.414282     -0.199949
     15.18659     19.77688     12.87982        -0.334142      0.389482     -0.054011
     16.53187     20.01298     11.66750        -0.617115     -0.626013      1.161341
     15.52484     18.59020     11.57087        -0.060907      0.815943      1.002489
     18.00715     20.34289     13.46201         0.535857     -0.404664      0.143444
     18.58778     19.33552     12.11545        -0.250939     -0.076622      0.557275
     18.96834     18.79275     13.78417         0.203172      0.519180      0.044177
     14.84226     10.81519     12.32706        -0.742071     -0.058487      0.175272
     15.96126     11.73144     11.38392        -0.893800      0.067064      0.812466
     14.52791     12.59043     11.81338        -0.367302     -0.615125      0.622322
     18.08131     11.64816     13.86378         0.016303     -0.578084      0.691688
     16.81262     10.27170     13.76358         0.387534     -0.292512      0.629714
     17.46172     11.06318     12.35417        -0.334770      0.206703      1.091676
     17.63447     13.24016     12.19012        -0.311269      0.149858      0.847738
     16.12728     14.13353     12.18660         0.463686     -0.388214      0.921405
     17.07446     14.12705     13.69843         0.885386      0.674077      0.047958
     11.57540     12.20862     14.07107         1.251529      0.047287     -0.027603
     12.87523     13.15612     13.38011         0.232671      0.538696     -0.313209
     12.66621     11.39310     13.00561         0.533378      1.254361      0.621156
     13.13235      9.81166     15.81006         0.966244      0.109278     -0.384927
     14.64926      9.97220     14.75818         0.071174     -0.607296      0.380750
     13.04729      9.86922     14.06024         0.521133      0.440429      0.657690
     12.20260     11.20805     16.62426         0.914112      1.184183     -0.072715
     13.15252     12.74767     16.97223         0.297210     -0.185103      0.529562
     11.75343     12.73275     15.94231         1.265112     -0.322339      0.131230
     17.24746     14.72772     18.35339        -0.314830     -0.860202      0.283052
     16.15860     13.40736     18.79739        -0.428069     -0.128931      0.047423
     17.79949     13.47755     19.46098        -0.674821     -0.080048     -0.936406
     19.04374     12.04637     18.87765        -0.186476     -0.731681     -0.245080
     19.91507     12.91700     17.65764        -1.058511     -0.573197      0.132212
     19.24838     11.38258     17.14608         0.181005     -0.264220      0.677060
     19.20279     14.32558     16.75270        -1.120202     -0.159772     -0.676207
     17.60833     14.80064     16.21330        -0.239221     -0.208716     -0.643534
     18.53694     13.38820     15.42441        -0.170793      0.399517     -0.603341
     16.51115      9.54967     19.51540         0.661618      0.966432     -0.416932
     17.85548     10.01478     18.49750         0.559496      0.487801      0.069860
     16.91890     11.25355     19.54153         0.717863      0.338170      0.025660
     14.64421      8.73952     17.30257         0.861757      0.290608     -0.521403
     16.22435      8.35048     17.94422        -0.058306      0.458566     -0.190848
     16.18615      8.97116     16.29349        -0.568179     -0.330918      0.393449
     14.66371     10.31063     19.55630         0.104168      0.527955     -0.980482
     13.75775     10.22070     18.08754         0.451398      1.492597      0.308049
     14.36443     11.83746     18.78850        -0.231523      0.396869     -0.389866
     11.13256     17.25132     10.30663         0.123159     -0.699193      0.814894
     10.54513     16.74750     11.87883        -0.174590     -0.300588      0.099242
     11.50017     15.60387     10.75665        -0.556125      0.549216      1.015914
     11.64114     19.01698     11.22387         0.670350     -0.414033      0.221004
     13.33750     18.97105     10.67068        -0.421389     -0.124200      0.737375
     12.92356     19.20970     12.41916         0.079119     -0.031535     -0.668035
     13.40754     15.48221     10.48034         0.310826      0.333735      0.173101
     13.84805     17.13384      9.92061         0.487326     -0.593392      0.220777
     14.64802     16.36746     11.39432         0.703931     -0.038342     -0.605961
     14.26158     15.50303     13.70195         5.141840      0.015587      2.154094
     15.21516     16.70947     16.64815         0.158819      0.020017      1.862152
     14.60080     14.53264     16.74502         1.318468     -2.793498     -0.675490
     15.02887     14.32170     15.44426         1.072150      0.678489      2.474697
     13.12929     16.70643     13.46750        -0.507110      2.148520      0.261998
     16.52091     18.18786     14.92750         2.891870     -0.204433      1.490259
     15.22789     12.56912     14.99736        -1.637272      0.495034     -0.062011
     16.53852     11.67778     16.57241         2.863392     -1.346388     -0.140788
 -----------------------------------------------------------------------------------
    total drift:                                0.048882     -0.005860     -0.088287


--------------------------------------------------------------------------------------------------------



  FREE ENERGIE OF THE ION-ELECTRON SYSTEM (eV)
  ---------------------------------------------------
  free  energy   TOTEN  =      -815.33479732 eV

  energy  without entropy=     -815.33479732  energy(sigma->0) =     -815.33479732
 


--------------------------------------------------------------------------------------------------------


    POTLOK:  cpu time    3.8592: real time    3.8653


--------------------------------------------------------------------------------------------------------


 stress matrix after NEB project (eV)
     -2.04113     -0.11888     -0.24492
     -0.11888     -2.76662      0.21301
     -0.24492      0.21301     -2.01440
  FORCES: max atom, RMS     9.728885    1.925128
  FORCE total and by dimension   21.263739    9.582012
  Stress total and by dimension    4.014618    2.766617
     LOOP+:  cpu time14407.2447: real time14446.5881
    4ORBIT:  cpu time    0.0000: real time    0.0000

 total amount of memory used by VASP on root node  2974048. kBytes
========================================================================

   base      :      30000. kBytes
   nonl-proj :     778578. kBytes
   fftplans  :     338850. kBytes
   grid      :     952390. kBytes
   one-center:        187. kBytes
   HF        :         23. kBytes
   nonlr-proj:       1266. kBytes
   wavefun   :     872754. kBytes
 
  
  
 General timing and accounting informations for this job:
 ========================================================
  
                  Total CPU time used (sec):    14453.199
                            User time (sec):    14397.209
                          System time (sec):       55.990
                         Elapsed time (sec):    14497.826
  
                   Maximum memory used (kb):     3850488.
                   Average memory used (kb):           0.
  
                          Minor page faults:      1054587
                          Major page faults:           76
                 Voluntary context switches:         3108
