Molecule_POSCAR_03
1.0
30.000000 0.000000 0.000000
0.000000 30.000000 0.000000
0.000000 0.000000 30.000000
C F H N Si
36 6 72 4 4
Cartesian
10.771191 15.154935 13.797185
11.502442 16.342966 14.336497
11.711112 16.113725 15.830334
10.608768 17.597888 14.271670
15.350059 15.461345 14.645345
15.568746 16.682218 15.404652
16.024230 19.635525 15.907493
15.082189 19.247778 17.063324
15.376077 20.778552 15.206961
17.231797 20.262521 16.663927
16.888844 18.483272 13.194394
17.317964 17.228679 12.431192
15.975110 19.281929 12.346916
18.226747 19.299079 13.167384
14.681282 15.650226 17.380813
14.220902 15.768555 18.809505
16.058108 12.307296 13.384990
15.202816 11.828927 12.237186
17.174269 11.233551 13.443604
16.786473 13.516774 12.863476
13.515225 11.820782 14.997742
12.683670 12.192357 13.807938
13.620679 10.281623 14.932038
12.692844 12.147441 16.209525
17.727724 12.919110 17.329822
17.180475 13.616206 18.526230
19.023408 12.226915 17.805371
18.232448 13.917717 16.320082
15.830534 10.529296 17.788117
16.924464 10.399268 18.882051
15.709823 9.076002 17.286912
14.609272 10.816917 18.535454
12.708826 17.150754 11.703402
11.390714 16.620701 11.217856
12.659821 18.650763 11.502606
13.744795 16.479158 10.807930
13.620870 18.179058 14.196417
18.124643 17.816023 15.591030
13.211981 16.739823 18.810439
13.750054 14.551495 19.199328
15.221306 16.267107 19.620341
17.676519 10.612819 15.816154
10.675359 14.333861 14.569825
9.674715 15.431988 13.653120
11.188787 14.696164 12.910867
10.702739 16.273141 16.320196
12.342811 16.904485 16.251094
11.975469 15.087668 16.050950
9.565402 17.303760 14.001945
10.528680 18.103078 15.253957
11.024126 18.357756 13.580766
15.607047 18.710932 17.856306
14.148708 18.833427 16.708516
14.814478 20.248126 17.519779
16.008572 21.290484 14.453732
14.329708 20.617508 14.916422
15.283529 21.582876 16.020026
16.807212 20.952103 17.421311
17.810260 19.456547 17.159721
17.821680 20.850532 15.961168
17.231883 17.474070 11.353158
18.373383 16.941519 12.669880
16.688452 16.378552 12.642885
15.186594 19.776875 12.879820
16.531865 20.012980 11.667495
15.524837 18.590198 11.570867
18.007146 20.342889 13.462012
18.587776 19.335522 12.115451
18.968338 18.792753 13.784175
14.842256 10.815193 12.327065
15.961265 11.731442 11.383921
14.527915 12.590429 11.813378
18.081306 11.648159 13.863782
16.812622 10.271700 13.763583
17.461718 11.063185 12.354167
17.634466 13.240158 12.190125
16.127276 14.133528 12.186596
17.074462 14.127047 13.698432
11.575405 12.208622 14.071071
12.875229 13.156118 13.380112
12.666212 11.393095 13.005606
13.132354 9.811658 15.810058
14.649263 9.972200 14.758180
13.047291 9.869217 14.060244
12.202601 11.208052 16.624264
13.152521 12.747668 16.972228
11.753425 12.732752 15.942310
17.247458 14.727725 18.353389
16.158595 13.407365 18.797387
17.799489 13.477546 19.460979
19.043742 12.046373 18.877648
19.915069 12.917000 17.657640
19.248382 11.382582 17.146075
19.202795 14.325581 16.752698
17.608333 14.800638 16.213295
18.536941 13.388199 15.424409
16.511154 9.549670 19.515400
17.855478 10.014780 18.497500
16.918899 11.253551 19.541533
14.644210 8.739518 17.302572
16.224349 8.350481 17.944217
16.186146 8.971155 16.293494
14.663708 10.310632 19.556295
13.757751 10.220700 18.087535
14.364428 11.837456 18.788495
11.132564 17.251318 10.306631
10.545130 16.747503 11.878830
11.500169 15.603868 10.756646
11.641137 19.016980 11.223872
13.337496 18.971052 10.670683
12.923565 19.209700 12.419162
13.407539 15.482210 10.480341
13.848054 17.133842 9.920610
14.648025 16.367459 11.394316
14.261585 15.503031 13.701949
15.215163 16.709469 16.648146
14.600801 14.532644 16.745023
15.028873 14.321695 15.444262
13.129289 16.706428 13.467500
16.520910 18.187863 14.927500
15.227891 12.569117 14.997359
16.538516 11.677775 16.572412
